&CONTROL
  calculation   = 'scf'
  restart_mode  = 'from_scratch'
  prefix        = 'Co2'
  outdir        = '.out_Co2'
  pseudo_dir    = '.'
  tstress       = .true.
  tprnfor       = .true.
/
&SYSTEM
  ibrav         = 0
  nat           = 55           ! 1 Co1 + 12 Co2 + 42 Co3 = 55 atoms
  ntyp          = 3
  tot_charge    = 0
  ecutwfc       = 45.0         ! ~600 eV in Ry (1 Ry ≈ 13.6 eV)
  input_dft     = 'PBE'
  nspin         = 2            ! Spin-polarized calculation
  starting_magnetization(1) = 3.0  ! Initial guess for Co1
  starting_magnetization(2) = 3.0  ! Initial guess for Co2
  starting_magnetization(3) = 3.0  ! Initial guess for Co3
  occupations = 'smearing',
  smearing    = 'gaussian',
  degauss     = 0.01         ! Adjust as needed (in Ry)
/
&ELECTRONS
  conv_thr    = 1.0d-6
  mixing_beta = 0.3
/

CELL_PARAMETERS {angstrom}
   18.46913345       0.00000000       0.00000000
    0.00000000      18.46913345       0.00000000
    0.00000000       0.00000000      18.46913345

ATOMIC_SPECIES
  Co1  58.9332  Co.GGA-PBE-paw.UPF
  Co2  58.9332  Co.GGA-PBE-paw.UPF
  Co3  58.9332  Co.GGA-PBE-paw.UPF

ATOMIC_POSITIONS {angstrom}
  Co1       9.23449       9.23449       9.23449
  Co2      11.25276       9.23483       7.98445
  Co2      11.25198       9.23485      10.48463
  Co2       7.21558       9.23490       7.98357
  Co2       7.21634       9.23496      10.48560
  Co2       7.98445      11.25276       9.23483
  Co2      10.48463      11.25198       9.23485
  Co2       7.98357       7.21558       9.23490
  Co2      10.48560       7.21634       9.23496
  Co2       9.23483       7.98445      11.25276
  Co2       9.23485      10.48463      11.25198
  Co2       9.23490       7.98357       7.21558
  Co2       9.23496      10.48560       7.21634
  Co3      13.23345       9.23458       6.75726
  Co3      13.25201       9.23484       9.23491
  Co3      13.23321       9.23458      11.71134
  Co3       5.23488       9.23459       6.75713
  Co3       5.21651       9.23485       9.23493
  Co3       5.23513       9.23458      11.71147
  Co3       6.75725      13.23345       9.23458
  Co3       9.23491      13.25201       9.23484
  Co3      11.71134      13.23320       9.23458
  Co3       6.75713       5.23489       9.23459
  Co3       9.23493       5.21651       9.23485
  Co3      11.71147       5.23514       9.23458
  Co3       9.23458       6.75726      13.23345
  Co3       9.23484       9.23491      13.25201
  Co3       9.23458      11.71134      13.23320
  Co3       9.23458       6.75713       5.23489
  Co3       9.23485       9.23493       5.21651
  Co3       9.23458      11.71147       5.23514
  Co3      11.24532       7.99146      12.48612
  Co3      11.24505      10.47815      12.48597
  Co3      11.24579       7.99131       5.98266
  Co3      11.24552      10.47830       5.98281
  Co3       7.22417       7.99121      12.48657
  Co3       7.22445      10.47840      12.48643
  Co3       7.22371       7.99112       5.98228
  Co3       7.22403      10.47856       5.98239
  Co3      12.48613      11.24532       7.99146
  Co3      12.48597      11.24505      10.47815
  Co3       5.98266      11.24579       7.99131
  Co3       5.98281      11.24552      10.47830
  Co3      12.48657       7.22417       7.99121
  Co3      12.48643       7.22445      10.47840
  Co3       5.98228       7.22371       7.99112
  Co3       5.98239       7.22403      10.47856
  Co3       7.99146      12.48612      11.24532
  Co3      10.47815      12.48597      11.24504
  Co3       7.99131       5.98266      11.24579
  Co3      10.47830       5.98281      11.24552
  Co3       7.99121      12.48657       7.22417
  Co3      10.47840      12.48643       7.22445
  Co3       7.99112       5.98228       7.22371
  Co3      10.47856       5.98239       7.22403

K_POINTS {automatic}
1 1 1 0 0 0

