&CONTROL
   calculation      = 'relax'
   restart_mode     = 'from_scratch'
   tstress          = .true.
   tprnfor          = .true.
   outdir           = './lt_fm_qe'
   prefix           = 'lt_fm_qe'
   disk_io          = 'low'
   pseudo_dir       = '..'
/
&SYSTEM
   nbnd             = 100
   tot_magnetization = 12
   ecutwfc          = 90.0000000000000
   ecutrho          = 370.000000000000
   occupations      = 'fixed'
   nspin            = 2
   input_dft        = 'optB86b'
   assume_isolated  = '2D'
   starting_magnetization(1) = 3.0
   starting_magnetization(2) = 0.0
   ntyp             = 2
   nat              = 16
   ibrav            = 0
/
&ELECTRONS
   conv_thr         = 1e-09
   diago_david_ndim = 8
   electron_maxstep = 300
   mixing_beta      = 0.5
   startingpot      = 'file'
   startingwfc      = 'atomic'
/
&IONS
/
&CELL
/

ATOMIC_SPECIES
Cr  51.9961 Cr.GGA-PBE-paw.UPF
I  126.90447 I.GGA-PBE-paw.UPF

K_POINTS automatic
6 6 1  0 0 0

CELL_PARAMETERS angstrom
6.87698202200000 -0.00000000000000 0.00000000000000
-3.43849101100000 5.95564113200000 0.00000000000000
-0.00000000000000 0.00000000000000 27.50792808800000

ATOMIC_POSITIONS angstrom
Cr       2.29231695       3.97043402      17.04518715
Cr      -1.14617406       5.95564772      17.04518761      
I        3.27642934       1.98520712      15.49396456       
I        0.08100384       4.11078112      15.49396456       
I       -3.35746435       5.81531379      15.49396456     
I        1.30820467       1.98520890      18.59640869     
I        1.06511771       5.81531280      18.59640869       
I       -2.37335355       4.11078034      18.59640869      
Cr       5.73080796       1.98522031      10.46274198     
Cr       2.29231695       3.97043401      10.46274244      
I        6.71492035      -0.00000659       8.91151940       
I        3.51949485       2.12556741       8.91151940     
I        0.08102666       3.83010008       8.91151940      
I        4.74669568      -0.00000481      12.01396352      
I        4.50360872       3.83009909      12.01396352      
I        1.06513746       2.12556663      12.01396352       
