! PBE0 OPT def2-TZVP
%pal nprocs 32 end
%maxcore 3000

* xyz 0 11
Fe         9.71899        3.40552        6.88840
O          9.66188        1.45599        6.71309
O         10.98919        4.12773        5.84173
O          8.13899        4.23181        6.83329
C          8.96430        0.63543        5.74901
C         11.08212        5.18968        4.90175
C          6.90142        4.51786        7.44935
C          9.72741       -0.63395        5.55880
H         10.64754       -0.42576        5.29475
H          9.29999       -1.17002        4.85723
H          9.73449       -1.14026        6.39700
C          7.55703        0.42358        6.25730
H          7.57671       -0.17536        7.03255
H          7.01084        0.02405        5.54805
H          7.17254        1.28591        6.51981
C          8.91314        1.39427        4.43814
H          8.46826        2.25718        4.57784
H          8.41267        0.87217        3.77802
H          9.82495        1.54600        4.11268
C         12.47403        5.33066        4.50568
H         12.99535        5.67943        5.25791
H         12.53760        5.95063        3.74885
H         12.82821        4.45528        4.24164
C         10.39224        6.37266        5.35923
H          9.45694        6.15056        5.55266
H         10.42711        7.06022        4.66227
H         10.82355        6.70853        6.17286
C         10.34342        4.72651        3.58459
H         10.64920        3.82863        3.33743
H         10.54788        5.35212        2.85846
H          9.37660        4.71142        3.74118
C          6.71982        3.60837        8.65982
H          6.75447        2.67131        8.37121
H          5.85215        3.78989        9.07738
H          7.43678        3.77759        9.30612
C          5.81448        4.29139        6.42309
H          6.00377        4.82444        5.62328
H          4.94985        4.56151        6.79767
H          5.78374        3.34212        6.18361
C          6.94996        5.98978        7.86614
H          7.63433        6.11183        8.55696
H          6.07617        6.25838        8.22076
H          7.17007        6.54264        7.08782
Fe        10.40455        0.98829        8.46316
O         10.46166        2.93783        8.63848
O          9.13435        0.26609        9.50983
O         11.98455        0.16201        8.51827
C         11.15924        3.75838        9.60256
C          9.04141       -0.79586       10.44981
C         13.22212       -0.12404        7.90222
C         10.39613        5.02777        9.79276
H          9.47600        4.81958       10.05681
H         10.82355        5.56383       10.49433
H         10.38905        5.53407        8.95457
C         12.56651        3.97024        9.09427
H         12.54683        4.56918        8.31901
H         13.11270        4.36977        9.80351
H         12.95100        3.10791        8.83175
C         11.21040        2.99955       10.91343
H         11.65527        2.13664       10.77373
H         11.71087        3.52165       11.57354
H         10.29859        2.84781       11.23888
C          7.64951       -0.93684       10.84588
H          7.12819       -1.28561       10.09365
H          7.58594       -1.55682       11.60271
H          7.29533       -0.06146       11.10993
C          9.73130       -1.97884        9.99233
H         10.66659       -1.75674        9.79890
H          9.69643       -2.66640       10.68929
H          9.29999       -2.31471        9.17870
C          9.78012       -0.33269       11.76697
H          9.47434        0.56518       12.01413
H          9.57566       -0.95830       12.49310
H         10.74693       -0.31760       11.61039
C         13.40372        0.78545        6.69175
H         13.36907        1.72251        6.98036
H         14.27139        0.60393        6.27418
H         12.68676        0.61623        6.04544
C         14.30906        0.10242        8.92847
H         14.11977       -0.43063        9.72828
H         15.17369       -0.16769        8.55389
H         14.33980        1.05170        9.16795
C         13.17358       -1.59596        7.48542
H         12.48921       -1.71801        6.79460
H         14.04737       -1.86457        7.13080
H         12.95347       -2.14883        8.26375
*
