! PBE0 OPT def2-TZVP
%pal nprocs 32 end
%maxcore 3000

* xyz 1 4
Fe     12.580837    2.882895   24.870137
Fe     11.687700    4.313414   22.029214
Fe     10.142078    5.105396   24.812736
O      11.469855    4.097432   23.883900
O      13.745854    1.541694   25.903757
H      13.556489    0.761438   25.785497
H      14.337090    1.664740   26.418053
O      11.909145    4.542569   19.944766
H      12.578994    4.748128   19.566018
H      11.257844    4.921840   19.668170
O       8.717166    6.214547   25.877434
H       8.486875    5.819352   26.571281
H       8.812733    6.996251   26.044806
O      14.269471    3.624790   24.065416
O      13.691890    4.445580   22.079740
O      12.498335    1.420096   23.510260
O      11.783457    2.323398   21.607091
O      11.656106    6.336145   22.070704
O      10.455567    6.831224   23.866613
O       9.735144    4.228440   21.606698
O       8.672818    4.645348   23.508295
O      11.419721    5.715125   26.225929
O      12.888216    4.095260   26.426304
O       9.486742    3.603076   25.940296
O      11.008685    2.002031   25.770174
C      14.499918    4.310953   23.047826
C      15.799754    5.107133   23.001858
C      16.394363    4.998563   21.593340
H      15.739458    5.272159   20.948997
H      16.652335    4.089470   21.424397
H      17.165550    5.566022   21.526549
C      15.407495    6.522886   23.302420
H      14.887479    6.870310   22.571641
H      16.196741    7.055602   23.412430
H      14.886848    6.546047   24.107848
C      16.806161    4.571521   24.021412
H      16.963970    3.639266   23.856398
H      16.454393    4.685881   24.909348
H      17.632256    5.055019   23.938905
C      12.012672    1.334687   22.348478
C      11.665523   -0.068037   21.858935
C      10.538867   -0.577592   22.677722
H       9.797821    0.028952   22.618788
H      10.818992   -0.651420   23.593160
H      10.273841   -1.441810   22.355550
C      12.876388   -0.956864   21.982303
H      13.500837   -0.745514   21.282956
H      12.607346   -1.876090   21.903725
H      13.291633   -0.816446   22.834879
C      11.237884   -0.024609   20.375375
H      11.971796    0.283730   19.837113
H      10.494173    0.574697   20.273223
H      10.979927   -0.904750   20.088564
C      11.154498    7.151144   22.878490
C      11.399977    8.650858   22.669471
C      12.207514    8.908530   21.398859
H      12.301464    9.855261   21.267240
H      11.752434    8.523469   20.646471
H      13.075141    8.510440   21.487259
C      10.035769    9.350048   22.595215
H      10.166355   10.292436   22.461631
H       9.556535    9.203841   23.412430
H       9.531402    8.991044   21.860507
C      12.201180    9.160413   23.872113
H      12.434131   10.081086   23.730672
H      13.001157    8.639277   23.966407
H      11.669853    9.082242   24.665755
C       8.708355    4.250154   22.329227
C       7.410635    3.752179   21.702564
C       7.663627    2.343664   21.227951
H       6.866691    1.993345   20.823272
H       7.915807    1.793576   21.970516
H       8.372772    2.348007   20.579679
C       7.074643    4.664167   20.548248
H       6.152551    4.548359   20.308584
H       7.631684    4.447027   19.797824
H       7.227007    5.576155   20.807556
C       6.255151    3.789817   22.709153
H       5.423741    3.649400   22.249470
H       6.237336    4.643901   23.145263
H       6.379070    3.099312   23.365283
C      12.410969    5.183856   26.760262
C      13.045704    5.933712   27.927151
C      12.933886    7.369732   27.718525
H      13.317412    7.599900   26.869879
H      13.402372    7.831516   28.417873
H      12.009136    7.624509   27.730312
C      12.404493    5.554441   29.101505
H      12.336933    4.597578   29.132936
H      11.524998    5.938055   29.125078
H      12.909374    5.867123   29.855857
C      14.480418    5.652878   28.009265
H      14.842545    6.056758   28.798978
H      14.921980    6.013330   27.235268
H      14.620304    4.703252   28.040697
C       9.897839    2.436311   26.154030
C       9.010714    1.504056   26.953958
C       7.559388    1.826871   26.728438
H       7.014790    1.257964   27.278486
H       7.339653    1.682111   25.801213
H       7.395152    2.744650   26.956315
C       9.320249    1.802262   28.423766
H       8.799917    1.221774   28.983637
H       9.098862    2.715698   28.618248
H      10.253314    1.656054   28.590745
C       9.383917    0.056456   26.704864
H       8.976851   -0.497974   27.372780
H      10.337378   -0.039085   26.748082
H       9.073522   -0.208454   25.836573
*
