! PBE0 OPT FREQ def2-TZVP
%pal nprocs 32 end
%maxcore 3000

* xyz 3 6
Fe         0.10890       -0.32640       -0.17818
O         -0.47868        1.47592       -0.58066
O         -0.44020       -1.26474        1.42531
O          1.34476       -1.15268       -1.42433
H         -1.33267        2.02913       -0.52454
C          2.81502       -0.98723       -1.41295
H         -1.03576       -1.09853        2.23540
C          0.37082        2.53516       -1.16925
H          1.30281       -1.77356       -2.23125
C         -0.00949       -2.62787        1.80883
H          1.39565        2.15408       -1.17745
H          0.31750        3.41183       -0.51699
C         -0.11076        2.83537       -2.57205
H         -0.08942        1.92991       -3.18728
H          0.51375        3.59910       -3.04352
H         -1.14777        3.18620       -2.55913
H          0.74784       -2.93884        1.08436
C         -1.20508       -3.55526        1.77965
H          0.44443       -2.57014        2.80251
H         -1.66645       -3.55599        0.78675
H         -1.97211       -3.22155        2.48602
H         -0.91185       -4.57720        2.03512
H          3.04568       -0.24271       -0.64610
H          3.11730       -0.60222       -2.39130
C          3.46513       -2.31673       -1.09650
H          3.11161       -2.69789       -0.13306
H          4.55365       -2.21942       -1.06084
H          3.20259       -3.06618       -1.85018
*