! PBE0 OPT FREQ def2-TZVP
%pal nprocs 16 end
%maxcore 3000

* xyz 3 2
Fe        -0.56480       -0.17888        0.17143
O         -2.02799       -0.48345       -1.55265
O          0.89832        0.12565        1.89551
O          0.09932        1.80349       -0.74238
O         -1.22898       -2.16130        1.08524
O         -2.18474        0.90894        1.35402
O          1.05508       -1.26674       -1.01116
H         -1.80316        1.69256        1.77974
H         -0.45585        2.52043       -0.39787
H         -2.88461       -0.09058       -1.32296
H         -1.97237       -2.00619        1.68874
H          0.45638        0.60483        2.61381
H          1.89579       -0.79144       -0.92063
H         -0.57618       -2.54900        1.08524
H         -3.03762        0.71317        1.10999
H         -1.38802       -1.03907       -2.18609
H          0.87312       -1.81437       -1.61639
H          0.99498        1.61043       -0.97830
H          1.71932       -0.24973        1.64655
*