&CONTROL
  calculation = 'scf'
  prefix = 'Fe2_tert-butoxide_6_LowSpin'
  restart_mode     = 'from_scratch'
  tstress          = .true.
  tprnfor          = .true.
  outdir = './out'
  pseudo_dir = '/work/e89/e89/phsmea/CASTEP_TO_QS_ARCHER_PBE/'
/

&SYSTEM
 ibrav = 0
 nat = 86
 nspin = 2
 ntyp = 4
 ecutwfc = 58.80
 starting_magnetization(1) = 1.00  ! Spin polarization
 tot_charge = 0    
 tot_magnetization = 2
/

&ELECTRONS
diago_david_ndim = 8
electron_maxstep = 1000
conv_thr = 1.0d-9
mixing_beta = 0.1
/

CELL_PARAMETERS angstrom
     30.10785296       0.00000000       0.00000000
      0.00000000      30.41344770       0.00000000
      0.00000000       0.00000000      29.20380479

ATOMIC_SPECIES
Fe 55.845  Fe.GGA-PBE-paw.UPF
O  16.00   O.GGA-PBE-paw.UPF
H  1.008   H.GGA-PBE-paw.UPF
C  12.011  C.GGA-PBE-paw.UPF

ATOMIC_POSITIONS angstrom
   Fe    14.756415    16.368811    13.756042
   Fe    15.351439    14.044562    15.447720
    O    14.416899    14.493106    13.821861
    O    16.048357    17.326792    12.994795
    O    13.329816    17.384135    13.504090
    C    13.778858    13.613728    12.880240
    C    16.036813    18.294921    11.966844
    C    12.082109    17.487121    14.164876
    C    14.609286    12.343547    12.767658
    H    15.611568    12.568489    12.399108
    H    14.138705    11.650394    12.066875
    H    14.690930    11.848005    13.736789
    C    12.378764    13.271604    13.368692
    H    12.427581    12.869800    14.381191
    H    11.924298    12.528106    12.709572
    H    11.736707    14.153196    13.370907
    C    13.727354    14.324321    11.536498
    H    13.165227    15.258225    11.607925
    H    13.237813    13.692008    10.792430
    H    14.735703    14.550369    11.181149
    C    17.484424    18.397194    11.490706
    H    18.136026    18.692197    12.315933
    H    17.577932    19.138504    10.693062
    H    17.826189    17.431705    11.111603
    C    15.578302    19.635749    12.532670
    H    14.557336    19.555177    12.907607
    H    15.609690    20.413448    11.764954
    H    16.231834    19.940376    13.353717
    C    15.141918    17.872276    10.806354
    H    15.473317    16.911596    10.404387
    H    15.182946    18.609004    10.000000
    H    14.105796    17.781779    11.136202
    C    11.977040    16.535582    15.350930
    H    12.120667    15.497899    15.049070
    H    10.994160    16.620478    15.820607
    H    12.728514    16.775933    16.105740
    C    10.991713    17.189869    13.139338
    H    11.092049    17.860531    12.283554
    H    10.000000    17.330375    13.576256
    H    11.063667    16.162275    12.779103
    C    11.950361    18.930128    14.646645
    H    12.748371    19.170151    15.352010
    H    10.989993    19.088278    15.143917
    H    12.019961    19.618825    13.802202
    O    15.690973    15.920249    15.381894
    O    14.059505    13.086618    16.209021
    O    16.778093    13.029334    15.699679
    C    16.329332    16.799527    16.323391
    C    14.071029    12.118494    17.236968
    C    18.025901    12.926706    15.039055
    C    15.499300    18.069958    16.435820
    H    14.496978    17.845390    16.804477
    H    15.970153    18.763066    17.136459
    H    15.417739    18.565366    15.466607
    C    17.729501    17.141153    15.834781
    H    17.680721    17.542744    14.822194
    H    18.184235    17.884682    16.493690
    H    18.371303    16.259375    15.832732
    C    16.380751    16.089099    17.667221
    H    16.942592    15.155009    17.595884
    H    16.870535    16.721375    18.411160
    H    15.372354    15.863415    18.022674
    C    12.623393    12.016095    17.713013
    H    11.971872    11.721087    16.887722
    H    12.529882    11.274739    18.510615
    H    12.281530    12.981540    18.092135
    C    14.529710    10.777728    16.671126
    H    15.550696    10.858420    16.296244
    H    14.498346    10.000000    17.438810
    H    13.876249    10.473072    15.850030
    C    14.965827    12.541164    18.397521
    H    14.634288    13.501758    18.799571
    H    14.924888    11.804354    19.203805
    H    16.001946    12.631843    18.067711
    C    18.131074    13.878643    13.853325
    H    17.987249    14.916197    14.155507
    H    19.114038    13.794043    13.383765
    H    17.379762    13.638397    13.098302
    C    19.116045    13.223831    16.064906
    H    19.015683    12.552847    16.920437
    H    20.107853    13.083661    15.628090
    H    19.043863    14.251289    16.425507
    C    18.157928    11.483887    14.556862
    H    17.360099    11.243964    13.851264
    H    19.118427    11.326004    14.059768
    H    18.088228    10.794957    15.401109

K_POINTS automatic
1 1 1 0 0 0  ! Gamma point only

