
     Program PWSCF v.7.3 starts on 11Mar2026 at  4:49:58 

     This program is part of the open-source Quantum ESPRESSO suite
     for quantum simulation of materials; please cite
         "P. Giannozzi et al., J. Phys.:Condens. Matter 21 395502 (2009);
         "P. Giannozzi et al., J. Phys.:Condens. Matter 29 465901 (2017);
         "P. Giannozzi et al., J. Chem. Phys. 152 154105 (2020);
          URL http://www.quantum-espresso.org", 
     in publications or presentations arising from this work. More details at
     http://www.quantum-espresso.org/quote

     Parallel version (MPI), running on    24 processors

     MPI processes distributed on     1 nodes
     95641 MiB available memory on the printing compute node when the environment starts

     Reading input from Fe2_tert-butoxide_6_HighSpin.in

     Current dimensions of program PWSCF are:
     Max number of different atomic species (ntypx) = 10
     Max number of k-points (npk) =  40000
     Max angular momentum in pseudopotentials (lmaxx) =  4
read_pp_mesh; mismatch in mesh size, discarding the one in header
read_pp_mesh; mismatch in mesh size, discarding the one in header
read_pp_mesh; mismatch in mesh size, discarding the one in header
read_pp_mesh; mismatch in mesh size, discarding the one in header
     file Fe.GGA-PBE-paw.UPF: wavefunction(s)  4S 3P 0P 3D 0D renormalized
     file O.GGA-PBE-paw.UPF: wavefunction(s)  0S 2P 0P renormalized
     file H.GGA-PBE-paw.UPF: wavefunction(s)  0S 0P renormalized
     file C.GGA-PBE-paw.UPF: wavefunction(s)  0S 0P renormalized

     R & G space division:  proc/nbgrp/npool/nimage =      24
     Subspace diagonalization in iterative solution of the eigenvalue problem:
     a serial algorithm will be used


     Parallelization info
     --------------------
     sticks:   dense  smooth     PW     G-vecs:    dense   smooth      PW
     Min        2549    2549    637               457995   457995   57255
     Max        2550    2550    638               457998   457998   57258
     Sum       61197   61197  15311             10991921 10991921 1374165

     Using Slab Decomposition



     bravais-lattice index     =            0
     lattice parameter (alat)  =      56.8956  a.u.
     unit-cell volume          =  180460.2187 (a.u.)^3
     number of atoms/cell      =           86
     number of atomic types    =            4
     number of electrons       =       218.00 (up: 114.00, down: 104.00)
     number of Kohn-Sham states=          114
     kinetic-energy cutoff     =      58.8000  Ry
     charge density cutoff     =     235.2000  Ry
     scf convergence threshold =      1.0E-09
     mixing beta               =       0.3000
     number of iterations used =            8  plain     mixing
     Exchange-correlation= SLA PW PBX PBC
                           (   1   4   3   4   0   0   0)

     celldm(1)=  56.895596  celldm(2)=   0.000000  celldm(3)=   0.000000
     celldm(4)=   0.000000  celldm(5)=   0.000000  celldm(6)=   0.000000

     crystal axes: (cart. coord. in units of alat)
               a(1) = (   1.000000   0.000000   0.000000 )  
               a(2) = (   0.000000   1.010150   0.000000 )  
               a(3) = (   0.000000   0.000000   0.969973 )  

     reciprocal axes: (cart. coord. in units 2 pi/alat)
               b(1) = (  1.000000  0.000000  0.000000 )  
               b(2) = (  0.000000  0.989952  0.000000 )  
               b(3) = (  0.000000  0.000000  1.030957 )  


     PseudoPot. # 1 for Fe read from file:
     /storage/nanosim/JTH_PBE/Fe.GGA-PBE-paw.UPF
     MD5 check sum: 6f5baa53d711f01c620cb678d0da43bc
     Pseudo is Projector augmented-wave + core cor, Zval = 16.0
     Generated using ATOMPAW code
     Shape of augmentation charge: SINC**2
     Using radial grid of 2342 points,  6 beta functions with: 
                l(1) =   0
                l(2) =   0
                l(3) =   1
                l(4) =   1
                l(5) =   2
                l(6) =   2
     Q(r) pseudized with 0 coefficients 


     PseudoPot. # 2 for O  read from file:
     /storage/nanosim/JTH_PBE/O.GGA-PBE-paw.UPF
     MD5 check sum: 736cbc7a9d52a6679d85906802ae4ba1
     Pseudo is Projector augmented-wave + core cor, Zval =  6.0
     Generated using ATOMPAW code
     Shape of augmentation charge: SINC**2
     Using radial grid of 2342 points,  4 beta functions with: 
                l(1) =   0
                l(2) =   0
                l(3) =   1
                l(4) =   1
     Q(r) pseudized with 0 coefficients 


     PseudoPot. # 3 for H  read from file:
     /storage/nanosim/JTH_PBE/H.GGA-PBE-paw.UPF
     MD5 check sum: 038daa4ccd301a845c8516faee96a7c5
     Pseudo is Projector augmented-wave + core cor, Zval =  1.0
     Generated using ATOMPAW code
     Shape of augmentation charge: SINC**2
     Using radial grid of 2342 points,  3 beta functions with: 
                l(1) =   0
                l(2) =   0
                l(3) =   1
     Q(r) pseudized with 0 coefficients 


     PseudoPot. # 4 for C  read from file:
     /storage/nanosim/JTH_PBE/C.GGA-PBE-paw.UPF
     MD5 check sum: 8a36bdb47dd4552c95d9f9e63f43b56b
     Pseudo is Projector augmented-wave + core cor, Zval =  4.0
     Generated using ATOMPAW code
     Shape of augmentation charge: SINC**2
     Using radial grid of 2342 points,  4 beta functions with: 
                l(1) =   0
                l(2) =   0
                l(3) =   1
                l(4) =   1
     Q(r) pseudized with 0 coefficients 


     atomic species   valence    mass     pseudopotential
     Fe               16.00    55.84500     Fe( 1.00)
     O                 6.00    16.00000     O ( 1.00)
     H                 1.00     1.00800     H ( 1.00)
     C                 4.00    12.01100     C ( 1.00)

     Starting magnetic structure 
     atomic species   magnetization
     Fe              0.312
     O               0.000
     H               0.000
     C               0.000

     No symmetry found



   Cartesian axes

     site n.     atom                  positions (alat units)
         1        Fe     tau(   1) = (   0.4961871   0.5455305   0.4589029  )
         2        Fe     tau(   2) = (   0.5209239   0.4657083   0.5124288  )
         3        O      tau(   3) = (   0.4976120   0.4796225   0.4528686  )
         4        O      tau(   4) = (   0.5385805   0.5730541   0.4265705  )
         5        O      tau(   5) = (   0.4417115   0.5692751   0.4534470  )
         6        C      tau(   6) = (   0.4729730   0.4515133   0.4233846  )
         7        C      tau(   7) = (   0.5411916   0.6074070   0.3949580  )
         8        C      tau(   8) = (   0.4016886   0.5817579   0.4739942  )
         9        C      tau(   9) = (   0.4966617   0.4069300   0.4208745  )
        10        H      tau(  10) = (   0.5305158   0.4111269   0.4085805  )
        11        H      tau(  11) = (   0.4790959   0.3844259   0.3984907  )
        12        H      tau(  12) = (   0.4979884   0.3912048   0.4535888  )
        13        C      tau(  13) = (   0.4260462   0.4456139   0.4412009  )
        14        H      tau(  14) = (   0.4269502   0.4322854   0.4749151  )
        15        H      tau(  15) = (   0.4071567   0.4229278   0.4200868  )
        16        H      tau(  16) = (   0.4088737   0.4775191   0.4418342  )
        17        C      tau(  17) = (   0.4721769   0.4735809   0.3779474  )
        18        H      tau(  18) = (   0.4550360   0.5055568   0.3795908  )
        19        H      tau(  19) = (   0.4545823   0.4527839   0.3539814  )
        20        H      tau(  20) = (   0.5059353   0.4790784   0.3658831  )
        21        C      tau(  21) = (   0.5886007   0.6078612   0.3771214  )
        22        H      tau(  22) = (   0.6121095   0.6139138   0.4040752  )
        23        H      tau(  23) = (   0.5929224   0.6337485   0.3520400  )
        24        H      tau(  24) = (   0.5965548   0.5758022   0.3621330  )
        25        C      tau(  25) = (   0.5303957   0.6515823   0.4173433  )
        26        H      tau(  26) = (   0.4967321   0.6507836   0.4308796  )
        27        H      tau(  27) = (   0.5326040   0.6790976   0.3937644  )
        28        H      tau(  28) = (   0.5536789   0.6579476   0.4444428  )
        29        C      tau(  29) = (   0.5084281   0.5985947   0.3573110  )
        30        H      tau(  30) = (   0.5158451   0.5668595   0.3413650  )
        31        H      tau(  31) = (   0.5102585   0.6246872   0.3321393  )
        32        H      tau(  32) = (   0.4745219   0.5974635   0.3702088  )
        33        C      tau(  33) = (   0.3944887   0.5544967   0.5160740  )
        34        H      tau(  34) = (   0.3930304   0.5191060   0.5083221  )
        35        H      tau(  35) = (   0.3634939   0.5638973   0.5324580  )
        36        H      tau(  36) = (   0.4217710   0.5596784   0.5394118  )
        37        C      tau(  37) = (   0.3640454   0.5735891   0.4410431  )
        38        H      tau(  38) = (   0.3698266   0.5924232   0.4105907  )
        39        H      tau(  39) = (   0.3321393   0.5837779   0.4550290  )
        40        H      tau(  40) = (   0.3619988   0.5384118   0.4324640  )
        41        C      tau(  41) = (   0.4041065   0.6311332   0.4852126  )
        42        H      tau(  42) = (   0.4313982   0.6376087   0.5082037  )
        43        H      tau(  43) = (   0.3732634   0.6424598   0.5006439  )
        44        H      tau(  44) = (   0.4096382   0.6505740   0.4550882  )
        45        O      tau(  45) = (   0.5195000   0.5316163   0.5184626  )
        46        O      tau(  46) = (   0.4785302   0.4381845   0.5447606  )
        47        O      tau(  47) = (   0.5753994   0.4419639   0.5178860  )
        48        C      tau(  48) = (   0.5441421   0.5597249   0.5479444  )
        49        C      tau(  49) = (   0.4759188   0.4038302   0.5763716  )
        50        C      tau(  50) = (   0.6154270   0.4294912   0.4973419  )
        51        C      tau(  51) = (   0.5204549   0.6043088   0.5504561  )
        52        H      tau(  52) = (   0.4866016   0.6001129   0.5627527  )
        53        H      tau(  53) = (   0.5380231   0.6268125   0.5728385  )
        54        H      tau(  54) = (   0.5191262   0.6200339   0.5177419  )
        55        C      tau(  55) = (   0.5910674   0.5656223   0.5301231  )
        56        H      tau(  56) = (   0.5901603   0.5789511   0.4964091  )
        57        H      tau(  57) = (   0.6099600   0.5883074   0.5512353  )
        58        H      tau(  58) = (   0.6082384   0.5337163   0.5294875  )
        59        C      tau(  59) = (   0.5449419   0.5376574   0.5933815  )
        60        H      tau(  60) = (   0.5620819   0.5056811   0.5917367  )
        61        H      tau(  61) = (   0.5625392   0.5584541   0.6173459  )
        62        H      tau(  62) = (   0.5111845   0.5321607   0.6054490  )
        63        C      tau(  63) = (   0.4285099   0.4033762   0.5942087  )
        64        H      tau(  64) = (   0.4050006   0.3973254   0.5672549  )
        65        H      tau(  65) = (   0.4241879   0.3774880   0.6192890  )
        66        H      tau(  66) = (   0.4205567   0.4354348   0.6091986  )
        67        C      tau(  67) = (   0.4867134   0.3596555   0.5539843  )
        68        H      tau(  68) = (   0.5203768   0.3604539   0.5404476  )
        69        H      tau(  69) = (   0.4845045   0.3321393   0.5775621  )
        70        H      tau(  70) = (   0.4634296   0.3532919   0.5268849  )
        71        C      tau(  71) = (   0.5086829   0.4126403   0.6140186  )
        72        H      tau(  72) = (   0.5012668   0.4443751   0.6299658  )
        73        H      tau(  73) = (   0.5068519   0.3865469   0.6391895  )
        74        H      tau(  74) = (   0.5425890   0.4137709   0.6011206  )
        75        C      tau(  75) = (   0.6226393   0.4567780   0.4552810  )
        76        H      tau(  76) = (   0.6240965   0.4921640   0.4630551  )
        77        H      tau(  77) = (   0.6536381   0.4473865   0.4388994  )
        78        H      tau(  78) = (   0.5953631   0.4516116   0.4319328  )
        79        C      tau(  79) = (   0.6530621   0.4376384   0.5303078  )
        80        H      tau(  80) = (   0.6472719   0.4187862   0.5607474  )
        81        H      tau(  81) = (   0.6849713   0.4274564   0.5163241  )
        82        H      tau(  82) = (   0.6551083   0.4728104   0.5389085  )
        83        C      tau(  83) = (   0.6130098   0.3801228   0.4860931  )
        84        H      tau(  84) = (   0.5857241   0.3736627   0.4630906  )
        85        H      tau(  85) = (   0.6438565   0.3688041   0.4706633  )
        86        H      tau(  86) = (   0.6074689   0.3606641   0.5162042  )

     number of k points=     1
                       cart. coord. in units 2pi/alat
        k(    1) = (   0.0000000   0.0000000   0.0000000), wk =   1.0000000

     Dense  grid: 10991921 G-vectors     FFT dimensions: ( 288, 288, 270)

     Estimated max dynamical RAM per process >       3.60 GB

     Estimated total dynamical RAM >      86.44 GB

     Check: negative core charge=   -0.000002
     Generating pointlists ...
     new r_m :   0.0246 (alat units)  1.4005 (a.u.) for type    1
     new r_m :   0.0193 (alat units)  1.0958 (a.u.) for type    2
     new r_m :   0.0149 (alat units)  0.8505 (a.u.) for type    3
     new r_m :   0.0149 (alat units)  0.8505 (a.u.) for type    4

     Initial potential from superposition of free atoms

     starting charge     217.9969, renormalised to     218.0000

     negative rho (up, down):  3.649E-02 2.311E-02
     Starting wfcs are  546 randomized atomic wfcs
     Checking if some PAW data can be deallocated... 

     total cpu time spent up to now is       88.6 secs

     Self-consistent Calculation

     iteration #  1     ecut=    58.80 Ry     beta= 0.30
     Davidson diagonalization with overlap
     ethr =  1.00E-02,  avg # of iterations =  2.5

     negative rho (up, down):  3.731E-02 2.420E-02

     total cpu time spent up to now is      153.8 secs

     total energy              =   -1413.42875547 Ry
     estimated scf accuracy    <      14.38097739 Ry

     total magnetization       =    10.00 Bohr mag/cell
     absolute magnetization    =    10.23 Bohr mag/cell

     iteration #  2     ecut=    58.80 Ry     beta= 0.30
     Davidson diagonalization with overlap
     ethr =  6.60E-03,  avg # of iterations =  3.0

     negative rho (up, down):  3.841E-02 2.465E-02

     total cpu time spent up to now is      213.2 secs

     total energy              =   -1414.30684373 Ry
     estimated scf accuracy    <       3.52689571 Ry

     total magnetization       =    10.00 Bohr mag/cell
     absolute magnetization    =    10.15 Bohr mag/cell

     iteration #  3     ecut=    58.80 Ry     beta= 0.30
     Davidson diagonalization with overlap
     ethr =  1.62E-03,  avg # of iterations =  3.0

     negative rho (up, down):  3.949E-02 2.534E-02

     total cpu time spent up to now is      267.8 secs

     total energy              =   -1414.87117877 Ry
     estimated scf accuracy    <       2.02241084 Ry

     total magnetization       =    10.00 Bohr mag/cell
     absolute magnetization    =    10.18 Bohr mag/cell

     iteration #  4     ecut=    58.80 Ry     beta= 0.30
     Davidson diagonalization with overlap
     ethr =  9.28E-04,  avg # of iterations =  2.0

     negative rho (up, down):  4.126E-02 2.617E-02

     total cpu time spent up to now is      320.4 secs

     total energy              =   -1415.06334192 Ry
     estimated scf accuracy    <       0.24365764 Ry

     total magnetization       =    10.00 Bohr mag/cell
     absolute magnetization    =    10.12 Bohr mag/cell

     iteration #  5     ecut=    58.80 Ry     beta= 0.30
     Davidson diagonalization with overlap
     ethr =  1.12E-04,  avg # of iterations =  3.0

     negative rho (up, down):  4.143E-02 2.626E-02

     total cpu time spent up to now is      379.2 secs

     total energy              =   -1415.08594588 Ry
     estimated scf accuracy    <       0.26271266 Ry

     total magnetization       =    10.00 Bohr mag/cell
     absolute magnetization    =    10.09 Bohr mag/cell

     iteration #  6     ecut=    58.80 Ry     beta= 0.30
     Davidson diagonalization with overlap
     ethr =  1.12E-04,  avg # of iterations =  1.5

     negative rho (up, down):  4.162E-02 2.630E-02

     total cpu time spent up to now is      430.4 secs

     total energy              =   -1415.10060503 Ry
     estimated scf accuracy    <       0.01872698 Ry

     total magnetization       =    10.00 Bohr mag/cell
     absolute magnetization    =    10.09 Bohr mag/cell

     iteration #  7     ecut=    58.80 Ry     beta= 0.30
     Davidson diagonalization with overlap
     ethr =  8.59E-06,  avg # of iterations =  3.0

     negative rho (up, down):  4.163E-02 2.629E-02

     total cpu time spent up to now is      487.6 secs

     total energy              =   -1415.10425578 Ry
     estimated scf accuracy    <       0.00247888 Ry

     total magnetization       =    10.00 Bohr mag/cell
     absolute magnetization    =    10.09 Bohr mag/cell

     iteration #  8     ecut=    58.80 Ry     beta= 0.30
     Davidson diagonalization with overlap
     ethr =  1.14E-06,  avg # of iterations =  2.0

     negative rho (up, down):  4.166E-02 2.624E-02

     total cpu time spent up to now is      540.3 secs

     total energy              =   -1415.10484262 Ry
     estimated scf accuracy    <       0.00069982 Ry

     total magnetization       =    10.00 Bohr mag/cell
     absolute magnetization    =    10.09 Bohr mag/cell

     iteration #  9     ecut=    58.80 Ry     beta= 0.30
     Davidson diagonalization with overlap
     ethr =  3.21E-07,  avg # of iterations =  2.5

     negative rho (up, down):  4.167E-02 2.621E-02

     total cpu time spent up to now is      601.5 secs

     total energy              =   -1415.10502284 Ry
     estimated scf accuracy    <       0.00017891 Ry

     total magnetization       =    10.00 Bohr mag/cell
     absolute magnetization    =    10.10 Bohr mag/cell

     iteration # 10     ecut=    58.80 Ry     beta= 0.30
     Davidson diagonalization with overlap
     ethr =  8.21E-08,  avg # of iterations =  3.0

     negative rho (up, down):  4.168E-02 2.620E-02

     total cpu time spent up to now is      658.1 secs

     total energy              =   -1415.10508915 Ry
     estimated scf accuracy    <       0.00007646 Ry

     total magnetization       =    10.00 Bohr mag/cell
     absolute magnetization    =    10.10 Bohr mag/cell

     iteration # 11     ecut=    58.80 Ry     beta= 0.30
     Davidson diagonalization with overlap
     ethr =  3.51E-08,  avg # of iterations =  2.5

     negative rho (up, down):  4.169E-02 2.618E-02

     total cpu time spent up to now is      717.5 secs

     total energy              =   -1415.10510756 Ry
     estimated scf accuracy    <       0.00002101 Ry

     total magnetization       =    10.00 Bohr mag/cell
     absolute magnetization    =    10.10 Bohr mag/cell

     iteration # 12     ecut=    58.80 Ry     beta= 0.30
     Davidson diagonalization with overlap
     ethr =  9.64E-09,  avg # of iterations =  2.0

     negative rho (up, down):  4.169E-02 2.617E-02

     total cpu time spent up to now is      774.2 secs

     total energy              =   -1415.10511369 Ry
     estimated scf accuracy    <       0.00000373 Ry

     total magnetization       =    10.00 Bohr mag/cell
     absolute magnetization    =    10.10 Bohr mag/cell

     iteration # 13     ecut=    58.80 Ry     beta= 0.30
     Davidson diagonalization with overlap
     ethr =  1.71E-09,  avg # of iterations =  3.0

     negative rho (up, down):  4.169E-02 2.617E-02

     total cpu time spent up to now is      835.5 secs

     total energy              =   -1415.10511478 Ry
     estimated scf accuracy    <       0.00000080 Ry

     total magnetization       =    10.00 Bohr mag/cell
     absolute magnetization    =    10.10 Bohr mag/cell

     iteration # 14     ecut=    58.80 Ry     beta= 0.30
     Davidson diagonalization with overlap
     ethr =  3.69E-10,  avg # of iterations =  3.0

     negative rho (up, down):  4.169E-02 2.617E-02

     total cpu time spent up to now is      899.2 secs

     total energy              =   -1415.10511507 Ry
     estimated scf accuracy    <       0.00000016 Ry

     total magnetization       =    10.00 Bohr mag/cell
     absolute magnetization    =    10.10 Bohr mag/cell

     iteration # 15     ecut=    58.80 Ry     beta= 0.30
     Davidson diagonalization with overlap
     ethr =  7.51E-11,  avg # of iterations =  2.5

     negative rho (up, down):  4.170E-02 2.617E-02

     total cpu time spent up to now is      959.8 secs

     total energy              =   -1415.10511516 Ry
     estimated scf accuracy    <       0.00000005 Ry

     total magnetization       =    10.00 Bohr mag/cell
     absolute magnetization    =    10.10 Bohr mag/cell

     iteration # 16     ecut=    58.80 Ry     beta= 0.30
     Davidson diagonalization with overlap
     ethr =  2.26E-11,  avg # of iterations =  3.0

     negative rho (up, down):  4.170E-02 2.617E-02

     total cpu time spent up to now is     1024.7 secs

     total energy              =   -1415.10511518 Ry
     estimated scf accuracy    <       0.00000001 Ry

     total magnetization       =    10.00 Bohr mag/cell
     absolute magnetization    =    10.10 Bohr mag/cell

     iteration # 17     ecut=    58.80 Ry     beta= 0.30
     Davidson diagonalization with overlap
     ethr =  5.06E-12,  avg # of iterations =  2.0

     negative rho (up, down):  4.170E-02 2.617E-02

     total cpu time spent up to now is     1085.6 secs

     total energy              =   -1415.10511517 Ry
     estimated scf accuracy    <          1.8E-09 Ry

     total magnetization       =    10.00 Bohr mag/cell
     absolute magnetization    =    10.10 Bohr mag/cell

     iteration # 18     ecut=    58.80 Ry     beta= 0.30
     Davidson diagonalization with overlap
     ethr =  8.32E-13,  avg # of iterations =  2.5

     negative rho (up, down):  4.170E-02 2.617E-02

     Magnetic moment per site  (integrated on atomic sphere of radius R)
     atom   1 (R=0.025)  charge= 12.3811  magn=  3.3613
     atom   2 (R=0.025)  charge= 12.3821  magn=  3.3617
     atom   3 (R=0.019)  charge=  3.7543  magn=  0.1743
     atom   4 (R=0.019)  charge=  3.7523  magn=  0.2113
     atom   5 (R=0.019)  charge=  3.7547  magn=  0.2163
     atom   6 (R=0.015)  charge=  0.8147  magn=  0.0037
     atom   7 (R=0.015)  charge=  0.8168  magn=  0.0037
     atom   8 (R=0.015)  charge=  0.8163  magn=  0.0053
     atom   9 (R=0.015)  charge=  0.8593  magn=  0.0026
     atom  10 (R=0.015)  charge=  0.4987  magn= -0.0001
     atom  11 (R=0.015)  charge=  0.4979  magn=  0.0008
     atom  12 (R=0.015)  charge=  0.4972  magn=  0.0002
     atom  13 (R=0.015)  charge=  0.8611  magn=  0.0013
     atom  14 (R=0.015)  charge=  0.4963  magn=  0.0000
     atom  15 (R=0.015)  charge=  0.4986  magn=  0.0005
     atom  16 (R=0.015)  charge=  0.5003  magn= -0.0000
     atom  17 (R=0.015)  charge=  0.8597  magn=  0.0024
     atom  18 (R=0.015)  charge=  0.4969  magn=  0.0002
     atom  19 (R=0.015)  charge=  0.4973  magn=  0.0009
     atom  20 (R=0.015)  charge=  0.4982  magn= -0.0001
     atom  21 (R=0.015)  charge=  0.8608  magn=  0.0028
     atom  22 (R=0.015)  charge=  0.4993  magn= -0.0001
     atom  23 (R=0.015)  charge=  0.4990  magn=  0.0013
     atom  24 (R=0.015)  charge=  0.4982  magn= -0.0001
     atom  25 (R=0.015)  charge=  0.8587  magn=  0.0030
     atom  26 (R=0.015)  charge=  0.4974  magn= -0.0002
     atom  27 (R=0.015)  charge=  0.4967  magn=  0.0007
     atom  28 (R=0.015)  charge=  0.4974  magn= -0.0001
     atom  29 (R=0.015)  charge=  0.8559  magn=  0.0031
     atom  30 (R=0.015)  charge=  0.4998  magn= -0.0001
     atom  31 (R=0.015)  charge=  0.4978  magn=  0.0007
     atom  32 (R=0.015)  charge=  0.4983  magn= -0.0002
     atom  33 (R=0.015)  charge=  0.8596  magn=  0.0026
     atom  34 (R=0.015)  charge=  0.4981  magn= -0.0001
     atom  35 (R=0.015)  charge=  0.4986  magn=  0.0005
     atom  36 (R=0.015)  charge=  0.4994  magn= -0.0001
     atom  37 (R=0.015)  charge=  0.8586  magn=  0.0033
     atom  38 (R=0.015)  charge=  0.4987  magn= -0.0001
     atom  39 (R=0.015)  charge=  0.4977  magn=  0.0014
     atom  40 (R=0.015)  charge=  0.4984  magn= -0.0001
     atom  41 (R=0.015)  charge=  0.8588  magn=  0.0035
     atom  42 (R=0.015)  charge=  0.4995  magn= -0.0001
     atom  43 (R=0.015)  charge=  0.4983  magn=  0.0011
     atom  44 (R=0.015)  charge=  0.4988  magn= -0.0001
     atom  45 (R=0.019)  charge=  3.7499  magn=  0.1740
     atom  46 (R=0.019)  charge=  3.7519  magn=  0.2114
     atom  47 (R=0.019)  charge=  3.7551  magn=  0.2162
     atom  48 (R=0.015)  charge=  0.8122  magn=  0.0037
     atom  49 (R=0.015)  charge=  0.8150  magn=  0.0037
     atom  50 (R=0.015)  charge=  0.8132  magn=  0.0053
     atom  51 (R=0.015)  charge=  0.8598  magn=  0.0026
     atom  52 (R=0.015)  charge=  0.4989  magn= -0.0001
     atom  53 (R=0.015)  charge=  0.4981  magn=  0.0008
     atom  54 (R=0.015)  charge=  0.4977  magn=  0.0002
     atom  55 (R=0.015)  charge=  0.8606  magn=  0.0013
     atom  56 (R=0.015)  charge=  0.4957  magn=  0.0000
     atom  57 (R=0.015)  charge=  0.4970  magn=  0.0005
     atom  58 (R=0.015)  charge=  0.4994  magn= -0.0000
     atom  59 (R=0.015)  charge=  0.8599  magn=  0.0024
     atom  60 (R=0.015)  charge=  0.4968  magn=  0.0002
     atom  61 (R=0.015)  charge=  0.4977  magn=  0.0009
     atom  62 (R=0.015)  charge=  0.4974  magn= -0.0001
     atom  63 (R=0.015)  charge=  0.8601  magn=  0.0028
     atom  64 (R=0.015)  charge=  0.4997  magn= -0.0001
     atom  65 (R=0.015)  charge=  0.4981  magn=  0.0013
     atom  66 (R=0.015)  charge=  0.4989  magn= -0.0001
     atom  67 (R=0.015)  charge=  0.8590  magn=  0.0030
     atom  68 (R=0.015)  charge=  0.4977  magn= -0.0002
     atom  69 (R=0.015)  charge=  0.4975  magn=  0.0007
     atom  70 (R=0.015)  charge=  0.4984  magn= -0.0001
     atom  71 (R=0.015)  charge=  0.8611  magn=  0.0031
     atom  72 (R=0.015)  charge=  0.4975  magn= -0.0001
     atom  73 (R=0.015)  charge=  0.4985  magn=  0.0007
     atom  74 (R=0.015)  charge=  0.4976  magn= -0.0002
     atom  75 (R=0.015)  charge=  0.8588  magn=  0.0026
     atom  76 (R=0.015)  charge=  0.4991  magn= -0.0001
     atom  77 (R=0.015)  charge=  0.4984  magn=  0.0005
     atom  78 (R=0.015)  charge=  0.4985  magn= -0.0001
     atom  79 (R=0.015)  charge=  0.8588  magn=  0.0033
     atom  80 (R=0.015)  charge=  0.4997  magn= -0.0001
     atom  81 (R=0.015)  charge=  0.4988  magn=  0.0014
     atom  82 (R=0.015)  charge=  0.4994  magn= -0.0001
     atom  83 (R=0.015)  charge=  0.8565  magn=  0.0034
     atom  84 (R=0.015)  charge=  0.5006  magn= -0.0001
     atom  85 (R=0.015)  charge=  0.4987  magn=  0.0012
     atom  86 (R=0.015)  charge=  0.4985  magn= -0.0001

     total cpu time spent up to now is     1149.9 secs

     End of self-consistent calculation

 ------ SPIN UP ------------


          k = 0.0000 0.0000 0.0000 (****** PWs)   bands (ev):

   -94.5259 -94.5247 -60.6746 -60.6739 -60.5837 -60.5697 -60.3721 -60.3719
   -24.8644 -24.6477 -24.4226 -24.4079 -24.2658 -24.2620 -19.3995 -19.2811
   -19.0536 -19.0507 -18.9404 -18.9401 -16.9487 -16.9453 -16.8240 -16.8206
   -16.7149 -16.7052 -16.6989 -16.6960 -16.6357 -16.6307 -16.6115 -16.6094
   -13.9810 -13.4486 -13.3956 -13.3780 -13.2085 -13.2037 -11.7751 -11.4779
   -11.4478 -11.4015 -11.3002 -11.2988 -11.1975 -11.1629 -10.9452 -10.9390
   -10.8064 -10.7848 -10.7389 -10.7257 -10.6537 -10.6472 -10.6278 -10.6257
    -9.8685  -9.7955  -9.6597  -9.5904  -9.5349  -9.4528  -9.4470  -9.4393
    -9.4010  -9.3474  -9.3449  -9.2882  -9.2810  -9.2338  -9.1601  -9.1548
    -9.0531  -9.0227  -8.9663  -8.6883  -8.6504  -8.6411  -8.5428  -8.4897
    -8.4895  -8.4576  -8.4143  -8.4056  -8.3921  -8.3134  -8.2828  -8.2305
    -8.1593  -8.1168  -8.0687  -8.0422  -7.8613  -7.8586  -7.7902  -7.7678
    -7.7402  -7.7057  -7.5430  -7.3697  -7.1499  -6.9895  -6.5653  -6.5106
    -6.1418  -6.0866  -5.4670  -5.3647  -5.3614  -5.2404  -4.9629  -4.9460
    -4.8697  -4.6203

 ------ SPIN DOWN ----------


          k = 0.0000 0.0000 0.0000 (****** PWs)   bands (ev):

   -89.9994 -89.9979 -56.2243 -56.2220 -56.1381 -56.1186 -56.0404 -56.0387
   -24.5385 -24.3318 -24.0274 -24.0144 -23.8806 -23.8772 -19.3185 -19.1987
   -18.9482 -18.9452 -18.8384 -18.8380 -16.9320 -16.9273 -16.8113 -16.8083
   -16.6945 -16.6875 -16.6794 -16.6789 -16.6177 -16.6130 -16.5934 -16.5912
   -13.7826 -13.2496 -13.2284 -13.1975 -13.0215 -13.0114 -11.6374 -11.2996
   -11.2716 -11.2243 -11.1155 -11.0943 -10.9945 -10.9830 -10.8804 -10.8548
   -10.7169 -10.7050 -10.6601 -10.6296 -10.5854 -10.5736 -10.5611 -10.5561
    -9.6310  -9.5972  -9.5348  -9.4659  -9.3947  -9.3522  -9.3136  -9.3013
    -9.2909  -9.2590  -9.2257  -9.1939  -9.1914  -8.9685  -8.9013  -8.8378
    -8.7645  -8.7492  -8.6340  -8.6308  -8.5224  -8.4641  -8.4130  -8.4030
    -8.4024  -8.3931  -8.2581  -8.2433  -8.0477  -8.0403  -8.0279  -7.9894
    -7.9555  -7.9525  -7.9297  -7.8959  -7.2443  -7.2274  -6.8841  -6.7034
    -6.4001  -6.3464  -6.1970  -6.0108  -5.9702  -5.9082  -5.7145  -5.6543
    -3.8750  -3.3031  -3.1049  -2.8861  -2.7198  -2.5880  -2.4593  -2.3352
    -2.3040  -2.1155

     highest occupied, lowest unoccupied level (ev):    -4.6203   -3.8750

!    total energy              =   -1415.10511517 Ry
     total all-electron energy =     -1415.105115 Ry
     estimated scf accuracy    <          6.1E-10 Ry

     The total energy is the sum of the following terms:
     one-electron contribution =   -8674.54868588 Ry
     hartree contribution      =    4319.40361106 Ry
     xc contribution           =    -236.50349104 Ry
     ewald contribution        =    3520.98274642 Ry
     one-center paw contrib.   =    -344.43929573 Ry

     total magnetization       =    10.00 Bohr mag/cell
     absolute magnetization    =    10.10 Bohr mag/cell

     convergence has been achieved in  18 iterations

     negative rho (up, down):  4.170E-02 2.617E-02

     Forces acting on atoms (cartesian axes, Ry/au):

     atom    1 type  1   force =     0.00147048   -0.00585821    0.00824929
     atom    2 type  1   force =    -0.00138205    0.00673089   -0.00753480
     atom    3 type  2   force =     0.00567117    0.00036670   -0.00234897
     atom    4 type  2   force =     0.01404520   -0.00422107   -0.00096499
     atom    5 type  2   force =    -0.00395752    0.00170390   -0.01064243
     atom    6 type  4   force =    -0.00416295   -0.00409087   -0.00369242
     atom    7 type  4   force =     0.00017725    0.00652763   -0.00535297
     atom    8 type  4   force =    -0.00700631    0.00128659    0.00348854
     atom    9 type  4   force =     0.00057828   -0.00277727    0.00006467
     atom   10 type  3   force =     0.00729648    0.00047316   -0.00286426
     atom   11 type  3   force =    -0.00365277   -0.00531959   -0.00530787
     atom   12 type  3   force =     0.00054210   -0.00311670    0.00640020
     atom   13 type  4   force =    -0.00258656   -0.00100922   -0.00084508
     atom   14 type  3   force =    -0.00042337   -0.00297427    0.00687410
     atom   15 type  3   force =    -0.00477521   -0.00504547   -0.00433415
     atom   16 type  3   force =    -0.00419734    0.00660517    0.00040875
     atom   17 type  4   force =    -0.00065180    0.00123633   -0.00216052
     atom   18 type  3   force =    -0.00297491    0.00641422    0.00007189
     atom   19 type  3   force =    -0.00367306   -0.00466040   -0.00571781
     atom   20 type  3   force =     0.00712489    0.00124308   -0.00312251
     atom   21 type  4   force =     0.00286865    0.00028688   -0.00134590
     atom   22 type  3   force =     0.00546577    0.00133343    0.00568872
     atom   23 type  3   force =     0.00120390    0.00559467   -0.00543980
     atom   24 type  3   force =     0.00211444   -0.00671454   -0.00351216
     atom   25 type  4   force =    -0.00117532    0.00207055    0.00208871
     atom   26 type  3   force =    -0.00680416    0.00046944    0.00286476
     atom   27 type  3   force =     0.00051991    0.00621035   -0.00492478
     atom   28 type  3   force =     0.00484209    0.00177581    0.00597693
     atom   29 type  4   force =    -0.00196597   -0.00149452   -0.00184202
     atom   30 type  3   force =     0.00133147   -0.00666413   -0.00362736
     atom   31 type  3   force =     0.00029211    0.00557349   -0.00569492
     atom   32 type  3   force =    -0.00707606   -0.00046733    0.00223570
     atom   33 type  4   force =    -0.00086200   -0.00097576    0.00175570
     atom   34 type  3   force =    -0.00047869   -0.00759648   -0.00118811
     atom   35 type  3   force =    -0.00687817    0.00182237    0.00382212
     atom   36 type  3   force =     0.00540117    0.00088056    0.00507466
     atom   37 type  4   force =    -0.00252406   -0.00083479   -0.00325228
     atom   38 type  3   force =     0.00077098    0.00403079   -0.00688382
     atom   39 type  3   force =    -0.00717980    0.00213460    0.00274455
     atom   40 type  3   force =    -0.00077685   -0.00764670   -0.00202026
     atom   41 type  4   force =     0.00050357    0.00331197    0.00119042
     atom   42 type  3   force =     0.00564334    0.00176123    0.00485462
     atom   43 type  3   force =    -0.00665225    0.00271013    0.00329507
     atom   44 type  3   force =     0.00120520    0.00455267   -0.00630439
     atom   45 type  2   force =    -0.00562964   -0.00025042    0.00238821
     atom   46 type  2   force =    -0.01407342    0.00417400    0.00092966
     atom   47 type  2   force =     0.00395682   -0.00176750    0.01062951
     atom   48 type  4   force =     0.00368722    0.00345923    0.00331887
     atom   49 type  4   force =    -0.00009770   -0.00595301    0.00545072
     atom   50 type  4   force =     0.00749980   -0.00167309   -0.00382391
     atom   51 type  4   force =    -0.00080353    0.00317550    0.00112312
     atom   52 type  3   force =    -0.00732860   -0.00051798    0.00284110
     atom   53 type  3   force =     0.00363599    0.00527977    0.00526869
     atom   54 type  3   force =    -0.00055864    0.00303485   -0.00640184
     atom   55 type  4   force =     0.00308079    0.00177793   -0.00078624
     atom   56 type  3   force =     0.00039866    0.00294983   -0.00695175
     atom   57 type  3   force =     0.00475448    0.00499672    0.00430838
     atom   58 type  3   force =     0.00414539   -0.00662020   -0.00044057
     atom   59 type  4   force =     0.00046581   -0.00089075    0.00336077
     atom   60 type  3   force =     0.00292362   -0.00643190   -0.00009653
     atom   61 type  3   force =     0.00366197    0.00462445    0.00568904
     atom   62 type  3   force =    -0.00715835   -0.00128948    0.00309728
     atom   63 type  4   force =    -0.00268447    0.00022732    0.00137833
     atom   64 type  3   force =    -0.00547048   -0.00137035   -0.00572021
     atom   65 type  3   force =    -0.00122603   -0.00563143    0.00541652
     atom   66 type  3   force =    -0.00214817    0.00669636    0.00351228
     atom   67 type  4   force =     0.00138784   -0.00275947   -0.00030480
     atom   68 type  3   force =     0.00679553   -0.00051236   -0.00290786
     atom   69 type  3   force =    -0.00054400   -0.00627937    0.00489628
     atom   70 type  3   force =    -0.00483269   -0.00181736   -0.00599817
     atom   71 type  4   force =     0.00229129    0.00016845    0.00162000
     atom   72 type  3   force =    -0.00133760    0.00657580    0.00356157
     atom   73 type  3   force =    -0.00031514   -0.00563169    0.00567130
     atom   74 type  3   force =     0.00705927    0.00042251   -0.00226882
     atom   75 type  4   force =     0.00085366    0.00235099   -0.00350028
     atom   76 type  3   force =     0.00046065    0.00757711    0.00116137
     atom   77 type  3   force =     0.00687489   -0.00187600   -0.00384929
     atom   78 type  3   force =    -0.00545005   -0.00092924   -0.00512668
     atom   79 type  4   force =     0.00226523   -0.00029770    0.00191725
     atom   80 type  3   force =    -0.00078032   -0.00404788    0.00683156
     atom   81 type  3   force =     0.00716736   -0.00218404   -0.00277834
     atom   82 type  3   force =     0.00075780    0.00757214    0.00199470
     atom   83 type  4   force =    -0.00068064   -0.00280370    0.00029111
     atom   84 type  3   force =    -0.00564225   -0.00180050   -0.00488752
     atom   85 type  3   force =     0.00661594   -0.00274719   -0.00332410
     atom   86 type  3   force =    -0.00122956   -0.00461969    0.00628445

     Total force =     0.069425     Total SCF correction =     0.000036


     Computing stress (Cartesian axis) and pressure


     negative rho (up, down):  4.170E-02 2.617E-02
          total   stress  (Ry/bohr**3)                   (kbar)     P=        0.63
   0.00000461   0.00000009  -0.00000013            0.68        0.01       -0.02
   0.00000009   0.00000417  -0.00000019            0.01        0.61       -0.03
  -0.00000013  -0.00000019   0.00000408           -0.02       -0.03        0.60


     Writing all to output data dir ./out/Fe2_tert-butoxide_6_HighSpin.save/ :
     XML data file, charge density, pseudopotentials, collected wavefunctions

     init_run     :    104.55s CPU     87.99s WALL (       1 calls)
     electrons    :   1246.81s CPU   1062.80s WALL (       1 calls)
     forces       :     20.69s CPU     16.56s WALL (       1 calls)
     stress       :    215.56s CPU    211.84s WALL (       1 calls)

     Called by init_run:
     wfcinit      :     90.91s CPU     74.30s WALL (       1 calls)
     potinit      :      2.75s CPU      2.89s WALL (       1 calls)
     hinit0       :      3.15s CPU      3.22s WALL (       1 calls)

     Called by electrons:
     c_bands      :    823.68s CPU    677.79s WALL (      18 calls)
     sum_band     :    300.54s CPU    266.30s WALL (      18 calls)
     v_of_rho     :     24.63s CPU     24.88s WALL (      19 calls)
     newd         :     68.12s CPU     62.67s WALL (      19 calls)
     PAW_pot      :     25.34s CPU     25.44s WALL (      19 calls)
     mix_rho      :      9.30s CPU      9.57s WALL (      18 calls)

     Called by c_bands:
     init_us_2    :     11.37s CPU     11.56s WALL (      78 calls)
     init_us_2:cp :     11.37s CPU     11.56s WALL (      78 calls)
     cegterg      :    803.07s CPU    657.09s WALL (      36 calls)

     Called by *egterg:
     cdiaghg      :      4.88s CPU      2.90s WALL (     128 calls)
     h_psi        :    683.58s CPU    613.75s WALL (     130 calls)
     s_psi        :     75.96s CPU     38.29s WALL (     130 calls)
     g_psi        :      1.91s CPU      1.56s WALL (      92 calls)

     Called by h_psi:
     h_psi:calbec :     78.03s CPU     39.92s WALL (     130 calls)
     vloc_psi     :    526.64s CPU    530.84s WALL (     130 calls)
     add_vuspsi   :     76.23s CPU     38.39s WALL (     130 calls)

     General routines
     calbec       :    112.76s CPU     57.71s WALL (     176 calls)
     fft          :     21.19s CPU     21.46s WALL (     441 calls)
     ffts         :      1.40s CPU      1.41s WALL (      36 calls)
     fftw         :    492.86s CPU    496.82s WALL (   26878 calls)

     Parallel routines

     PWSCF        :  26m32.14s CPU  23m12.64s WALL


   This run was terminated on:   5:13:10  11Mar2026            

=------------------------------------------------------------------------------=
   JOB DONE.
=------------------------------------------------------------------------------=
