
     Program PWSCF v.7.3.1 starts on 12Mar2026 at  8:42: 7 

     This program is part of the open-source Quantum ESPRESSO suite
     for quantum simulation of materials; please cite
         "P. Giannozzi et al., J. Phys.:Condens. Matter 21 395502 (2009);
         "P. Giannozzi et al., J. Phys.:Condens. Matter 29 465901 (2017);
         "P. Giannozzi et al., J. Chem. Phys. 152 154105 (2020);
          URL http://www.quantum-espresso.org", 
     in publications or presentations arising from this work. More details at
     http://www.quantum-espresso.org/quote

     Parallel version (MPI), running on   128 processors

     MPI processes distributed on     2 nodes
     242109 MiB available memory on the printing compute node when the environment starts

     Reading input from Fe3_O_piv_6_H2O_3_LowSpin.in

     Current dimensions of program PWSCF are:
     Max number of different atomic species (ntypx) = 10
     Max number of k-points (npk) =  40000
     Max angular momentum in pseudopotentials (lmaxx) =  4
read_pp_mesh; mismatch in mesh size, discarding the one in header
read_pp_mesh; mismatch in mesh size, discarding the one in header
read_pp_mesh; mismatch in mesh size, discarding the one in header
read_pp_mesh; mismatch in mesh size, discarding the one in header
     file Fe.GGA-PBE-paw.UPF: wavefunction(s)  4S 3P 4P 3D 4D renormalized
     file O.GGA-PBE-paw.UPF: wavefunction(s)  3S 2P 3P renormalized
     file H.GGA-PBE-paw.UPF: wavefunction(s)  2S 2P renormalized
     file C.GGA-PBE-paw.UPF: wavefunction(s)  3S 3P renormalized
     Message from routine setup:
     the system is metallic, specify occupations

     R & G space division:  proc/nbgrp/npool/nimage =     128
     Subspace diagonalization in iterative solution of the eigenvalue problem:
     one sub-group per band group will be used
     custom distributed-memory algorithm (size of sub-group:  2*  2 procs)


     Parallelization info
     --------------------
     sticks:   dense  smooth     PW     G-vecs:    dense   smooth      PW
     Min         542     542    135               100828   100828   12601
     Max         543     543    136               100837   100837   12608
     Sum       69493   69493  17367             12906675 12906675 1613349

     Using Slab Decomposition



     bravais-lattice index     =            0
     lattice parameter (alat)  =      61.4318  a.u.
     unit-cell volume          =  211893.4902 (a.u.)^3
     number of atoms/cell      =          109
     number of atomic types    =            4
     number of electrons       =       323.00 (up: 163.00, down: 160.00)
     number of Kohn-Sham states=          163
     kinetic-energy cutoff     =      58.8000  Ry
     charge density cutoff     =     235.2000  Ry
     scf convergence threshold =      1.0E-09
     mixing beta               =       0.3000
     number of iterations used =            8  plain     mixing
     Exchange-correlation= SLA PW PBX PBC
                           (   1   4   3   4   0   0   0)

     celldm(1)=  61.431848  celldm(2)=   0.000000  celldm(3)=   0.000000
     celldm(4)=   0.000000  celldm(5)=   0.000000  celldm(6)=   0.000000

     crystal axes: (cart. coord. in units of alat)
               a(1) = (   1.000000   0.000000   0.000000 )  
               a(2) = (   0.000000   0.983954   0.000000 )  
               a(3) = (   0.000000   0.000000   0.928885 )  

     reciprocal axes: (cart. coord. in units 2 pi/alat)
               b(1) = (  1.000000  0.000000  0.000000 )  
               b(2) = (  0.000000  1.016308  0.000000 )  
               b(3) = (  0.000000  0.000000  1.076559 )  


     PseudoPot. # 1 for Fe read from file:
     /work/e89/e89/phsmea/CASTEP_TO_QS_ARCHER_PBE/Fe.GGA-PBE-paw.UPF
     MD5 check sum: 2d46233e65fd0c9f60bb7b941dda812a
     Pseudo is Projector augmented-wave + core cor, Zval = 16.0
     Generated using ATOMPAW code
     Shape of augmentation charge: SINC**2
     Using radial grid of 2342 points,  6 beta functions with: 
                l(1) =   0
                l(2) =   0
                l(3) =   1
                l(4) =   1
                l(5) =   2
                l(6) =   2
     Q(r) pseudized with 0 coefficients 


     PseudoPot. # 2 for O  read from file:
     /work/e89/e89/phsmea/CASTEP_TO_QS_ARCHER_PBE/O.GGA-PBE-paw.UPF
     MD5 check sum: 75cebe6e27812ecd511c7c5e5b8738d8
     Pseudo is Projector augmented-wave + core cor, Zval =  6.0
     Generated using ATOMPAW code
     Shape of augmentation charge: SINC**2
     Using radial grid of 2342 points,  4 beta functions with: 
                l(1) =   0
                l(2) =   0
                l(3) =   1
                l(4) =   1
     Q(r) pseudized with 0 coefficients 


     PseudoPot. # 3 for H  read from file:
     /work/e89/e89/phsmea/CASTEP_TO_QS_ARCHER_PBE/H.GGA-PBE-paw.UPF
     MD5 check sum: b9d592600ff6b56d2e28875790887365
     Pseudo is Projector augmented-wave + core cor, Zval =  1.0
     Generated using ATOMPAW code
     Shape of augmentation charge: SINC**2
     Using radial grid of 2342 points,  3 beta functions with: 
                l(1) =   0
                l(2) =   0
                l(3) =   1
     Q(r) pseudized with 0 coefficients 


     PseudoPot. # 4 for C  read from file:
     /work/e89/e89/phsmea/CASTEP_TO_QS_ARCHER_PBE/C.GGA-PBE-paw.UPF
     MD5 check sum: 4aa9e32dab6042a76c944283fa01cc46
     Pseudo is Projector augmented-wave + core cor, Zval =  4.0
     Generated using ATOMPAW code
     Shape of augmentation charge: SINC**2
     Using radial grid of 2342 points,  4 beta functions with: 
                l(1) =   0
                l(2) =   0
                l(3) =   1
                l(4) =   1
     Q(r) pseudized with 0 coefficients 


     atomic species   valence    mass     pseudopotential
     Fe               16.00    55.84500     Fe( 1.00)
     O                 6.00    16.00000     O ( 1.00)
     H                 1.00     1.00800     H ( 1.00)
     C                 4.00    12.01100     C ( 1.00)

     Starting magnetic structure 
     atomic species   magnetization
     Fe              0.062
     O               0.000
     H               0.000
     C               0.000

     No symmetry found



   Cartesian axes

     site n.     atom                  positions (alat units)
         1        Fe     tau(   1) = (   0.5301095   0.4514145   0.4654092  )
         2        Fe     tau(   2) = (   0.5010419   0.4938001   0.3828493  )
         3        Fe     tau(   3) = (   0.4573467   0.5155974   0.4673518  )
         4        O      tau(   4) = (   0.4957836   0.4864549   0.4382525  )
         5        O      tau(   5) = (   0.5684911   0.4137681   0.4973895  )
         6        H      tau(   6) = (   0.5911880   0.4055681   0.4801613  )
         7        H      tau(   7) = (   0.5794892   0.4305754   0.5192888  )
         8        O      tau(   8) = (   0.5083513   0.5033746   0.3214557  )
         9        H      tau(   9) = (   0.5356183   0.4939065   0.3145161  )
        10        H      tau(  10) = (   0.5086687   0.5329494   0.3184874  )
        11        O      tau(  11) = (   0.4147913   0.5488906   0.4986944  )
        12        H      tau(  12) = (   0.4210334   0.5478261   0.5276630  )
        13        H      tau(  13) = (   0.4189099   0.5769176   0.4897480  )
        14        O      tau(  14) = (   0.5798812   0.4757167   0.4451371  )
        15        O      tau(  15) = (   0.5605803   0.4940870   0.3818697  )
        16        O      tau(  16) = (   0.5337354   0.4101103   0.4237775  )
        17        O      tau(  17) = (   0.5008348   0.4366992   0.3699071  )
        18        O      tau(  18) = (   0.5020125   0.5529770   0.3837507  )
        19        O      tau(  19) = (   0.4614781   0.5667099   0.4372505  )
        20        O      tau(  20) = (   0.4436795   0.4950115   0.3716894  )
        21        O      tau(  21) = (   0.4134601   0.4978738   0.4332066  )
        22        O      tau(  22) = (   0.4950378   0.5377070   0.5071800  )
        23        O      tau(  23) = (   0.5367306   0.4838703   0.5148209  )
        24        O      tau(  24) = (   0.4434782   0.4728131   0.5050361  )
        25        O      tau(  25) = (   0.4859522   0.4214325   0.4893627  )
        26        C      tau(  26) = (   0.5870083   0.4894601   0.4096990  )
        27        C      tau(  27) = (   0.6308927   0.5032121   0.4000205  )
        28        C      tau(  28) = (   0.6422702   0.4907845   0.3561562  )
        29        H      tau(  29) = (   0.6218838   0.5050149   0.3336538  )
        30        H      tau(  30) = (   0.6410368   0.4574425   0.3520845  )
        31        H      tau(  31) = (   0.6736416   0.5007792   0.3495230  )
        32        C      tau(  32) = (   0.6310727   0.5502640   0.4038093  )
        33        H      tau(  33) = (   0.6090025   0.5641950   0.3826830  )
        34        H      tau(  34) = (   0.6616716   0.5619658   0.3963583  )
        35        H      tau(  35) = (   0.6235932   0.5599974   0.4351016  )
        36        C      tau(  36) = (   0.6614592   0.4847064   0.4303798  )
        37        H      tau(  37) = (   0.6618086   0.4511482   0.4285331  )
        38        H      tau(  38) = (   0.6543483   0.4934810   0.4619553  )
        39        H      tau(  39) = (   0.6923866   0.4956386   0.4231553  )
        40        C      tau(  40) = (   0.5172603   0.4073769   0.3888940  )
        41        C      tau(  41) = (   0.5160330   0.3651139   0.3684978  )
        42        C      tau(  42) = (   0.4741186   0.3465725   0.3798719  )
        43        H      tau(  43) = (   0.4489093   0.3654131   0.3681658  )
        44        H      tau(  44) = (   0.4708430   0.3435908   0.4131804  )
        45        H      tau(  45) = (   0.4714886   0.3159284   0.3663426  )
        46        C      tau(  46) = (   0.5504129   0.3377549   0.3849198  )
        47        H      tau(  47) = (   0.5806877   0.3506764   0.3781102  )
        48        H      tau(  48) = (   0.5485949   0.3076134   0.3702037  )
        49        H      tau(  49) = (   0.5479689   0.3334295   0.4180783  )
        50        C      tau(  50) = (   0.5195365   0.3695012   0.3218854  )
        51        H      tau(  51) = (   0.5489678   0.3831980   0.3131176  )
        52        H      tau(  52) = (   0.4949330   0.3885498   0.3094165  )
        53        H      tau(  53) = (   0.5177525   0.3391437   0.3076134  )
        54        C      tau(  54) = (   0.4824144   0.5772848   0.4065469  )
        55        C      tau(  55) = (   0.4848035   0.6232597   0.3971569  )
        56        C      tau(  56) = (   0.5058766   0.6310907   0.3560307  )
        57        H      tau(  57) = (   0.5078602   0.6641867   0.3506614  )
        58        H      tau(  58) = (   0.4885376   0.6176831   0.3305534  )
        59        H      tau(  59) = (   0.5370037   0.6185745   0.3555175  )
        60        C      tau(  60) = (   0.4412441   0.6410529   0.3964530  )
        61        H      tau(  61) = (   0.4427276   0.6739098   0.3896438  )
        62        H      tau(  62) = (   0.4258729   0.6372368   0.4260165  )
        63        H      tau(  63) = (   0.4223761   0.6264545   0.3727753  )
        64        C      tau(  64) = (   0.5097352   0.6431630   0.4319056  )
        65        H      tau(  65) = (   0.5113854   0.6763404   0.4269007  )
        66        H      tau(  66) = (   0.5411602   0.6312604   0.4327738  )
        67        H      tau(  67) = (   0.4955085   0.6376472   0.4617925  )
        68        C      tau(  68) = (   0.4129221   0.4924232   0.3950223  )
        69        C      tau(  69) = (   0.3720172   0.4812296   0.3748348  )
        70        C      tau(  70) = (   0.3750507   0.4357449   0.3626827  )
        71        H      tau(  71) = (   0.3467178   0.4264484   0.3472011  )
        72        H      tau(  72) = (   0.3789164   0.4161508   0.3897309  )
        73        H      tau(  73) = (   0.4008172   0.4305438   0.3418068  )
        74        C      tau(  74) = (   0.3661941   0.5075364   0.3362768  )
        75        H      tau(  75) = (   0.3373527   0.4990419   0.3212926  )
        76        H      tau(  76) = (   0.3912539   0.5029846   0.3144729  )
        77        H      tau(  77) = (   0.3645007   0.5402273   0.3439578  )
        78        C      tau(  78) = (   0.3362975   0.4876321   0.4044731  )
        79        H      tau(  79) = (   0.3076134   0.4788182   0.3893665  )
        80        H      tau(  80) = (   0.3336965   0.5197727   0.4138448  )
        81        H      tau(  81) = (   0.3397928   0.4690860   0.4321988  )
        82        C      tau(  82) = (   0.5236775   0.5186986   0.5250394  )
        83        C      tau(  83) = (   0.5435523   0.5401247   0.5618236  )
        84        C      tau(  84) = (   0.5598826   0.5818870   0.5474012  )
        85        H      tau(  85) = (   0.5835374   0.5783332   0.5237765  )
        86        H      tau(  86) = (   0.5736646   0.5980597   0.5734216  )
        87        H      tau(  87) = (   0.5352268   0.6009012   0.5349408  )
        88        C      tau(  88) = (   0.5102480   0.5465761   0.5945277  )
        89        H      tau(  89) = (   0.4972630   0.5173314   0.6048392  )
        90        H      tau(  90) = (   0.4854038   0.5658775   0.5828329  )
        91        H      tau(  91) = (   0.5235601   0.5619366   0.6212721  )
        92        C      tau(  92) = (   0.5785434   0.5144678   0.5794969  )
        93        H      tau(  93) = (   0.5922456   0.5306536   0.6055460  )
        94        H      tau(  94) = (   0.6026932   0.5093207   0.5567314  )
        95        H      tau(  95) = (   0.5676959   0.4846499   0.5904957  )
        96        C      tau(  96) = (   0.4542920   0.4356097   0.5061448  )
        97        C      tau(  97) = (   0.4270294   0.4062362   0.5305612  )
        98        C      tau(  98) = (   0.3828539   0.4103105   0.5148358  )
        99        H      tau(  99) = (   0.3627689   0.3900850   0.5326176  )
       100        H      tau( 100) = (   0.3805477   0.4012920   0.4825297  )
       101        H      tau( 101) = (   0.3717115   0.4417968   0.5178203  )
       102        C      tau( 102) = (   0.4291479   0.4195050   0.5757581  )
       103        H      tau( 103) = (   0.4097294   0.3992301   0.5942091  )
       104        H      tau( 104) = (   0.4182232   0.4509879   0.5797228  )
       105        H      tau( 105) = (   0.4605022   0.4173664   0.5877060  )
       106        C      tau( 106) = (   0.4418693   0.3620099   0.5261556  )
       107        H      tau( 107) = (   0.4220071   0.3417897   0.5441909  )
       108        H      tau( 108) = (   0.4733774   0.3583460   0.5370799  )
       109        H      tau( 109) = (   0.4408177   0.3518618   0.4941723  )

     number of k points=     1
                       cart. coord. in units 2pi/alat
        k(    1) = (   0.0000000   0.0000000   0.0000000), wk =   1.0000000

     Dense  grid: 12906675 G-vectors     FFT dimensions: ( 300, 300, 288)

     Estimated max dynamical RAM per process >       1.10 GB

     Estimated total dynamical RAM >     140.28 GB

     Check: negative core charge=   -0.000002
     Generating pointlists ...
     new r_m :   0.0231 (alat units)  1.4208 (a.u.) for type    1
     new r_m :   0.0122 (alat units)  0.7514 (a.u.) for type    2
     new r_m :   0.0122 (alat units)  0.7514 (a.u.) for type    3
     new r_m :   0.0138 (alat units)  0.8494 (a.u.) for type    4

     Initial potential from superposition of free atoms

     starting charge     323.9959, renormalised to     323.0000

     negative rho (up, down):  4.393E-02 4.075E-02
     Starting wfcs are  722 randomized atomic wfcs
     Checking if some PAW data can be deallocated... 

     total cpu time spent up to now is       74.8 secs

     per-process dynamical memory:   403.8 Mb

     Self-consistent Calculation

     iteration #  1     ecut=    58.80 Ry     beta= 0.30
     Davidson diagonalization with overlap
     ethr =  1.00E-02,  avg # of iterations =  2.0

     negative rho (up, down):  4.574E-02 4.245E-02

     total cpu time spent up to now is      104.4 secs

     total energy              =   -2274.74686680 Ry
     estimated scf accuracy    <      20.91535366 Ry

     total magnetization       =     3.00 Bohr mag/cell
     absolute magnetization    =     4.59 Bohr mag/cell

     iteration #  2     ecut=    58.80 Ry     beta= 0.30
     Davidson diagonalization with overlap
     ethr =  6.48E-03,  avg # of iterations =  3.0

     negative rho (up, down):  4.680E-02 4.339E-02

     total cpu time spent up to now is      138.0 secs

     total energy              =   -2273.90930123 Ry
     estimated scf accuracy    <      26.83128725 Ry

     total magnetization       =     3.00 Bohr mag/cell
     absolute magnetization    =     3.54 Bohr mag/cell

     iteration #  3     ecut=    58.80 Ry     beta= 0.30
     Davidson diagonalization with overlap
     ethr =  6.48E-03,  avg # of iterations =  6.0

     negative rho (up, down):  4.749E-02 4.407E-02

     total cpu time spent up to now is      165.4 secs

     total energy              =   -2275.81226668 Ry
     estimated scf accuracy    <      36.10274402 Ry

     total magnetization       =     3.00 Bohr mag/cell
     absolute magnetization    =     3.52 Bohr mag/cell

     iteration #  4     ecut=    58.80 Ry     beta= 0.30
     Davidson diagonalization with overlap
     ethr =  6.48E-03,  avg # of iterations =  7.5

     negative rho (up, down):  4.844E-02 4.504E-02

     total cpu time spent up to now is      192.4 secs

     total energy              =   -2277.91286690 Ry
     estimated scf accuracy    <      25.87618914 Ry

     total magnetization       =     3.00 Bohr mag/cell
     absolute magnetization    =     3.45 Bohr mag/cell

     iteration #  5     ecut=    58.80 Ry     beta= 0.30
     Davidson diagonalization with overlap
     ethr =  6.48E-03,  avg # of iterations =  4.0

     negative rho (up, down):  4.926E-02 4.559E-02

     total cpu time spent up to now is      216.5 secs

     total energy              =   -2278.22851372 Ry
     estimated scf accuracy    <       4.28271725 Ry

     total magnetization       =     3.00 Bohr mag/cell
     absolute magnetization    =     4.13 Bohr mag/cell

     iteration #  6     ecut=    58.80 Ry     beta= 0.30
     Davidson diagonalization with overlap
     ethr =  1.33E-03,  avg # of iterations =  3.5

     negative rho (up, down):  4.939E-02 4.569E-02

     total cpu time spent up to now is      241.0 secs

     total energy              =   -2278.59551145 Ry
     estimated scf accuracy    <       2.62476136 Ry

     total magnetization       =     3.00 Bohr mag/cell
     absolute magnetization    =     3.47 Bohr mag/cell

     iteration #  7     ecut=    58.80 Ry     beta= 0.30
     Davidson diagonalization with overlap
     ethr =  8.13E-04,  avg # of iterations =  4.0

     negative rho (up, down):  5.037E-02 4.642E-02

     total cpu time spent up to now is      264.7 secs

     total energy              =   -2278.63874085 Ry
     estimated scf accuracy    <       3.90297363 Ry

     total magnetization       =     3.00 Bohr mag/cell
     absolute magnetization    =     3.51 Bohr mag/cell

     iteration #  8     ecut=    58.80 Ry     beta= 0.30
     Davidson diagonalization with overlap
     ethr =  8.13E-04,  avg # of iterations =  2.5

     negative rho (up, down):  5.123E-02 4.704E-02

     total cpu time spent up to now is      287.4 secs

     total energy              =   -2278.67489219 Ry
     estimated scf accuracy    <       0.79756957 Ry

     total magnetization       =     3.00 Bohr mag/cell
     absolute magnetization    =     3.42 Bohr mag/cell

     iteration #  9     ecut=    58.80 Ry     beta= 0.30
     Davidson diagonalization with overlap
     ethr =  2.47E-04,  avg # of iterations =  3.0

     negative rho (up, down):  5.186E-02 4.750E-02

     total cpu time spent up to now is      310.6 secs

     total energy              =   -2278.69883536 Ry
     estimated scf accuracy    <       0.15913410 Ry

     total magnetization       =     3.00 Bohr mag/cell
     absolute magnetization    =     3.38 Bohr mag/cell

     iteration # 10     ecut=    58.80 Ry     beta= 0.30
     Davidson diagonalization with overlap
     ethr =  4.93E-05,  avg # of iterations =  3.5

     negative rho (up, down):  5.207E-02 4.763E-02

     total cpu time spent up to now is      334.3 secs

     total energy              =   -2278.71015057 Ry
     estimated scf accuracy    <       0.01082116 Ry

     total magnetization       =     3.00 Bohr mag/cell
     absolute magnetization    =     3.43 Bohr mag/cell

     iteration # 11     ecut=    58.80 Ry     beta= 0.30
     Davidson diagonalization with overlap
     ethr =  3.35E-06,  avg # of iterations =  4.0

     negative rho (up, down):  5.230E-02 4.779E-02

     total cpu time spent up to now is      360.1 secs

     total energy              =   -2278.71289702 Ry
     estimated scf accuracy    <       0.00292876 Ry

     total magnetization       =     3.00 Bohr mag/cell
     absolute magnetization    =     3.41 Bohr mag/cell

     iteration # 12     ecut=    58.80 Ry     beta= 0.30
     Davidson diagonalization with overlap
     ethr =  9.07E-07,  avg # of iterations =  4.0

     negative rho (up, down):  5.238E-02 4.784E-02

     total cpu time spent up to now is      385.5 secs

     total energy              =   -2278.71380007 Ry
     estimated scf accuracy    <       0.00305289 Ry

     total magnetization       =     3.00 Bohr mag/cell
     absolute magnetization    =     3.41 Bohr mag/cell

     iteration # 13     ecut=    58.80 Ry     beta= 0.30
     Davidson diagonalization with overlap
     ethr =  9.07E-07,  avg # of iterations =  3.0

     negative rho (up, down):  5.245E-02 4.790E-02

     total cpu time spent up to now is      408.7 secs

     total energy              =   -2278.71422698 Ry
     estimated scf accuracy    <       0.00138273 Ry

     total magnetization       =     3.00 Bohr mag/cell
     absolute magnetization    =     3.41 Bohr mag/cell

     iteration # 14     ecut=    58.80 Ry     beta= 0.30
     Davidson diagonalization with overlap
     ethr =  4.28E-07,  avg # of iterations =  4.5

     negative rho (up, down):  5.248E-02 4.792E-02

     total cpu time spent up to now is      434.3 secs

     total energy              =   -2278.71458070 Ry
     estimated scf accuracy    <       0.00029789 Ry

     total magnetization       =     3.00 Bohr mag/cell
     absolute magnetization    =     3.41 Bohr mag/cell

     iteration # 15     ecut=    58.80 Ry     beta= 0.30
     Davidson diagonalization with overlap
     ethr =  9.22E-08,  avg # of iterations =  4.0

     negative rho (up, down):  5.248E-02 4.793E-02

     total cpu time spent up to now is      459.2 secs

     total energy              =   -2278.71474940 Ry
     estimated scf accuracy    <       0.00018615 Ry

     total magnetization       =     3.00 Bohr mag/cell
     absolute magnetization    =     3.41 Bohr mag/cell

     iteration # 16     ecut=    58.80 Ry     beta= 0.30
     Davidson diagonalization with overlap
     ethr =  5.76E-08,  avg # of iterations =  5.0

     negative rho (up, down):  5.248E-02 4.795E-02

     total cpu time spent up to now is      484.1 secs

     total energy              =   -2278.71492586 Ry
     estimated scf accuracy    <       0.00015462 Ry

     total magnetization       =     3.00 Bohr mag/cell
     absolute magnetization    =     3.41 Bohr mag/cell

     iteration # 17     ecut=    58.80 Ry     beta= 0.30
     Davidson diagonalization with overlap
     ethr =  4.79E-08,  avg # of iterations =  6.0

     negative rho (up, down):  5.248E-02 4.798E-02

     total cpu time spent up to now is      510.8 secs

     total energy              =   -2278.71514086 Ry
     estimated scf accuracy    <       0.00008752 Ry

     total magnetization       =     3.00 Bohr mag/cell
     absolute magnetization    =     3.41 Bohr mag/cell

     iteration # 18     ecut=    58.80 Ry     beta= 0.30
     Davidson diagonalization with overlap
     ethr =  2.71E-08,  avg # of iterations =  6.0

     negative rho (up, down):  5.248E-02 4.802E-02

     total cpu time spent up to now is      537.5 secs

     total energy              =   -2278.71530477 Ry
     estimated scf accuracy    <       0.00005881 Ry

     total magnetization       =     3.00 Bohr mag/cell
     absolute magnetization    =     3.41 Bohr mag/cell

     iteration # 19     ecut=    58.80 Ry     beta= 0.30
     Davidson diagonalization with overlap
     ethr =  1.82E-08,  avg # of iterations =  6.0

     negative rho (up, down):  5.247E-02 4.806E-02

     total cpu time spent up to now is      567.8 secs

     total energy              =   -2278.71551231 Ry
     estimated scf accuracy    <       0.00004584 Ry

     total magnetization       =     3.00 Bohr mag/cell
     absolute magnetization    =     3.41 Bohr mag/cell

     iteration # 20     ecut=    58.80 Ry     beta= 0.30
     Davidson diagonalization with overlap
     ethr =  1.42E-08,  avg # of iterations =  5.5

     negative rho (up, down):  5.247E-02 4.815E-02

     total cpu time spent up to now is      596.7 secs

     total energy              =   -2278.71542828 Ry
     estimated scf accuracy    <       0.00003536 Ry

     total magnetization       =     3.00 Bohr mag/cell
     absolute magnetization    =     3.42 Bohr mag/cell

     iteration # 21     ecut=    58.80 Ry     beta= 0.30
     Davidson diagonalization with overlap
     ethr =  1.09E-08,  avg # of iterations =  6.0

     negative rho (up, down):  5.248E-02 4.810E-02

     total cpu time spent up to now is      635.8 secs

     total energy              =   -2278.71564510 Ry
     estimated scf accuracy    <       0.00001517 Ry

     total magnetization       =     3.00 Bohr mag/cell
     absolute magnetization    =     3.42 Bohr mag/cell

     iteration # 22     ecut=    58.80 Ry     beta= 0.30
     Davidson diagonalization with overlap
     ethr =  4.70E-09,  avg # of iterations =  6.0

     negative rho (up, down):  5.247E-02 4.817E-02

     total cpu time spent up to now is      672.5 secs

     total energy              =   -2278.71568105 Ry
     estimated scf accuracy    <       0.00002916 Ry

     total magnetization       =     3.00 Bohr mag/cell
     absolute magnetization    =     3.42 Bohr mag/cell

     iteration # 23     ecut=    58.80 Ry     beta= 0.30
     Davidson diagonalization with overlap
     ethr =  4.70E-09,  avg # of iterations =  6.0

     negative rho (up, down):  5.248E-02 4.822E-02

     total cpu time spent up to now is      711.5 secs

     total energy              =   -2278.71577082 Ry
     estimated scf accuracy    <       0.00001154 Ry

     total magnetization       =     3.00 Bohr mag/cell
     absolute magnetization    =     3.42 Bohr mag/cell

     iteration # 24     ecut=    58.80 Ry     beta= 0.30
     Davidson diagonalization with overlap
     ethr =  3.57E-09,  avg # of iterations =  6.0

     negative rho (up, down):  5.248E-02 4.819E-02

     total cpu time spent up to now is      748.9 secs

     total energy              =   -2278.71581875 Ry
     estimated scf accuracy    <       0.00000382 Ry

     total magnetization       =     3.00 Bohr mag/cell
     absolute magnetization    =     3.42 Bohr mag/cell

     iteration # 25     ecut=    58.80 Ry     beta= 0.30
     Davidson diagonalization with overlap
     ethr =  1.18E-09,  avg # of iterations =  6.0

     negative rho (up, down):  5.247E-02 4.821E-02

     total cpu time spent up to now is      784.8 secs

     total energy              =   -2278.71582928 Ry
     estimated scf accuracy    <       0.00000228 Ry

     total magnetization       =     3.00 Bohr mag/cell
     absolute magnetization    =     3.42 Bohr mag/cell

     iteration # 26     ecut=    58.80 Ry     beta= 0.30
     Davidson diagonalization with overlap
     ethr =  7.07E-10,  avg # of iterations =  6.0

     negative rho (up, down):  5.247E-02 4.820E-02

     total cpu time spent up to now is      822.9 secs

     total energy              =   -2278.71584118 Ry
     estimated scf accuracy    <       0.00000056 Ry

     total magnetization       =     3.00 Bohr mag/cell
     absolute magnetization    =     3.42 Bohr mag/cell

     iteration # 27     ecut=    58.80 Ry     beta= 0.30
     Davidson diagonalization with overlap
     ethr =  1.75E-10,  avg # of iterations =  6.0

     negative rho (up, down):  5.247E-02 4.820E-02

     total cpu time spent up to now is      860.0 secs

     total energy              =   -2278.71584406 Ry
     estimated scf accuracy    <       0.00000021 Ry

     total magnetization       =     3.00 Bohr mag/cell
     absolute magnetization    =     3.42 Bohr mag/cell

     iteration # 28     ecut=    58.80 Ry     beta= 0.30
     Davidson diagonalization with overlap
     ethr =  6.35E-11,  avg # of iterations =  6.0

     negative rho (up, down):  5.247E-02 4.820E-02

     total cpu time spent up to now is      898.6 secs

     total energy              =   -2278.71584583 Ry
     estimated scf accuracy    <       0.00000015 Ry

     total magnetization       =     3.00 Bohr mag/cell
     absolute magnetization    =     3.42 Bohr mag/cell

     iteration # 29     ecut=    58.80 Ry     beta= 0.30
     Davidson diagonalization with overlap
     ethr =  4.52E-11,  avg # of iterations =  5.0

     negative rho (up, down):  5.247E-02 4.820E-02

     total cpu time spent up to now is      924.9 secs

     total energy              =   -2278.71584591 Ry
     estimated scf accuracy    <       0.00000003 Ry

     total magnetization       =     3.00 Bohr mag/cell
     absolute magnetization    =     3.42 Bohr mag/cell

     iteration # 30     ecut=    58.80 Ry     beta= 0.30
     Davidson diagonalization with overlap
     ethr =  1.04E-11,  avg # of iterations =  5.0

     negative rho (up, down):  5.247E-02 4.820E-02

     total cpu time spent up to now is      951.6 secs

     total energy              =   -2278.71584594 Ry
     estimated scf accuracy    <          8.6E-09 Ry

     total magnetization       =     3.00 Bohr mag/cell
     absolute magnetization    =     3.42 Bohr mag/cell

     iteration # 31     ecut=    58.80 Ry     beta= 0.30
     Davidson diagonalization with overlap
     ethr =  2.65E-12,  avg # of iterations =  5.5

     negative rho (up, down):  5.247E-02 4.820E-02

     total cpu time spent up to now is      986.8 secs

     total energy              =   -2278.71584600 Ry
     estimated scf accuracy    <          2.3E-09 Ry

     total magnetization       =     3.00 Bohr mag/cell
     absolute magnetization    =     3.42 Bohr mag/cell

     iteration # 32     ecut=    58.80 Ry     beta= 0.30
     Davidson diagonalization with overlap
     ethr =  7.26E-13,  avg # of iterations =  5.5

     negative rho (up, down):  5.247E-02 4.820E-02

     Magnetic moment per site  (integrated on atomic sphere of radius R)
     atom   1 (R=0.023)  charge= 12.5480  magn=  0.7950
     atom   2 (R=0.023)  charge= 12.5464  magn=  0.8042
     atom   3 (R=0.023)  charge= 12.5468  magn=  0.8093
     atom   4 (R=0.012)  charge=  1.8854  magn=  0.0727
     atom   5 (R=0.012)  charge=  1.9210  magn= -0.0016
     atom   6 (R=0.012)  charge=  0.3968  magn= -0.0000
     atom   7 (R=0.012)  charge=  0.3927  magn=  0.0003
     atom   8 (R=0.012)  charge=  1.9257  magn= -0.0015
     atom   9 (R=0.012)  charge=  0.3972  magn=  0.0000
     atom  10 (R=0.012)  charge=  0.3954  magn=  0.0002
     atom  11 (R=0.012)  charge=  1.9276  magn= -0.0017
     atom  12 (R=0.012)  charge=  0.3982  magn= -0.0000
     atom  13 (R=0.012)  charge=  0.3937  magn=  0.0002
     atom  14 (R=0.012)  charge=  1.9156  magn=  0.0023
     atom  15 (R=0.012)  charge=  1.9183  magn=  0.0038
     atom  16 (R=0.012)  charge=  1.9088  magn=  0.0032
     atom  17 (R=0.012)  charge=  1.9149  magn=  0.0041
     atom  18 (R=0.012)  charge=  1.9203  magn=  0.0014
     atom  19 (R=0.012)  charge=  1.9215  magn=  0.0028
     atom  20 (R=0.012)  charge=  1.9105  magn=  0.0048
     atom  21 (R=0.012)  charge=  1.9110  magn=  0.0051
     atom  22 (R=0.012)  charge=  1.9189  magn=  0.0027
     atom  23 (R=0.012)  charge=  1.9200  magn=  0.0031
     atom  24 (R=0.012)  charge=  1.9097  magn=  0.0044
     atom  25 (R=0.012)  charge=  1.9191  magn=  0.0051
     atom  26 (R=0.014)  charge=  0.8409  magn= -0.0017
     atom  27 (R=0.014)  charge=  0.8317  magn= -0.0006
     atom  28 (R=0.014)  charge=  0.8513  magn= -0.0001
     atom  29 (R=0.012)  charge=  0.3896  magn=  0.0000
     atom  30 (R=0.012)  charge=  0.3882  magn=  0.0000
     atom  31 (R=0.012)  charge=  0.3860  magn= -0.0000
     atom  32 (R=0.014)  charge=  0.8523  magn= -0.0001
     atom  33 (R=0.012)  charge=  0.3866  magn=  0.0000
     atom  34 (R=0.012)  charge=  0.3869  magn= -0.0001
     atom  35 (R=0.012)  charge=  0.3865  magn=  0.0000
     atom  36 (R=0.014)  charge=  0.8527  magn= -0.0000
     atom  37 (R=0.012)  charge=  0.3886  magn=  0.0000
     atom  38 (R=0.012)  charge=  0.3883  magn= -0.0000
     atom  39 (R=0.012)  charge=  0.3866  magn= -0.0000
     atom  40 (R=0.014)  charge=  0.8426  magn= -0.0020
     atom  41 (R=0.014)  charge=  0.8316  magn= -0.0007
     atom  42 (R=0.014)  charge=  0.8529  magn= -0.0001
     atom  43 (R=0.012)  charge=  0.3877  magn=  0.0000
     atom  44 (R=0.012)  charge=  0.3859  magn=  0.0000
     atom  45 (R=0.012)  charge=  0.3872  magn= -0.0001
     atom  46 (R=0.014)  charge=  0.8552  magn= -0.0001
     atom  47 (R=0.012)  charge=  0.3865  magn=  0.0000
     atom  48 (R=0.012)  charge=  0.3867  magn= -0.0001
     atom  49 (R=0.012)  charge=  0.3893  magn=  0.0000
     atom  50 (R=0.014)  charge=  0.8552  magn= -0.0001
     atom  51 (R=0.012)  charge=  0.3874  magn= -0.0000
     atom  52 (R=0.012)  charge=  0.3890  magn=  0.0000
     atom  53 (R=0.012)  charge=  0.3881  magn= -0.0001
     atom  54 (R=0.014)  charge=  0.8413  magn= -0.0016
     atom  55 (R=0.014)  charge=  0.8307  magn= -0.0006
     atom  56 (R=0.014)  charge=  0.8536  magn= -0.0000
     atom  57 (R=0.012)  charge=  0.3879  magn= -0.0001
     atom  58 (R=0.012)  charge=  0.3889  magn=  0.0000
     atom  59 (R=0.012)  charge=  0.3873  magn=  0.0000
     atom  60 (R=0.014)  charge=  0.8536  magn= -0.0001
     atom  61 (R=0.012)  charge=  0.3863  magn= -0.0000
     atom  62 (R=0.012)  charge=  0.3877  magn=  0.0000
     atom  63 (R=0.012)  charge=  0.3862  magn= -0.0000
     atom  64 (R=0.014)  charge=  0.8537  magn= -0.0001
     atom  65 (R=0.012)  charge=  0.3860  magn= -0.0001
     atom  66 (R=0.012)  charge=  0.3879  magn= -0.0000
     atom  67 (R=0.012)  charge=  0.3883  magn=  0.0000
     atom  68 (R=0.014)  charge=  0.8429  magn= -0.0018
     atom  69 (R=0.014)  charge=  0.8307  magn= -0.0007
     atom  70 (R=0.014)  charge=  0.8531  magn= -0.0001
     atom  71 (R=0.012)  charge=  0.3840  magn= -0.0001
     atom  72 (R=0.012)  charge=  0.3871  magn= -0.0000
     atom  73 (R=0.012)  charge=  0.3861  magn=  0.0000
     atom  74 (R=0.014)  charge=  0.8544  magn= -0.0001
     atom  75 (R=0.012)  charge=  0.3862  magn= -0.0001
     atom  76 (R=0.012)  charge=  0.3888  magn=  0.0000
     atom  77 (R=0.012)  charge=  0.3888  magn= -0.0000
     atom  78 (R=0.014)  charge=  0.8566  magn= -0.0000
     atom  79 (R=0.012)  charge=  0.3869  magn= -0.0000
     atom  80 (R=0.012)  charge=  0.3879  magn=  0.0000
     atom  81 (R=0.012)  charge=  0.3877  magn=  0.0001
     atom  82 (R=0.014)  charge=  0.8424  magn= -0.0018
     atom  83 (R=0.014)  charge=  0.8329  magn= -0.0005
     atom  84 (R=0.014)  charge=  0.8552  magn= -0.0001
     atom  85 (R=0.012)  charge=  0.3874  magn= -0.0000
     atom  86 (R=0.012)  charge=  0.3859  magn= -0.0001
     atom  87 (R=0.012)  charge=  0.3878  magn=  0.0000
     atom  88 (R=0.014)  charge=  0.8547  magn= -0.0000
     atom  89 (R=0.012)  charge=  0.3865  magn= -0.0000
     atom  90 (R=0.012)  charge=  0.3896  magn=  0.0000
     atom  91 (R=0.012)  charge=  0.3862  magn= -0.0000
     atom  92 (R=0.014)  charge=  0.8550  magn= -0.0000
     atom  93 (R=0.012)  charge=  0.3877  magn= -0.0000
     atom  94 (R=0.012)  charge=  0.3878  magn=  0.0000
     atom  95 (R=0.012)  charge=  0.3869  magn=  0.0000
     atom  96 (R=0.014)  charge=  0.8422  magn= -0.0020
     atom  97 (R=0.014)  charge=  0.8324  magn= -0.0006
     atom  98 (R=0.014)  charge=  0.8541  magn= -0.0001
     atom  99 (R=0.012)  charge=  0.3851  magn= -0.0001
     atom 100 (R=0.012)  charge=  0.3873  magn= -0.0000
     atom 101 (R=0.012)  charge=  0.3889  magn=  0.0000
     atom 102 (R=0.014)  charge=  0.8544  magn= -0.0001
     atom 103 (R=0.012)  charge=  0.3844  magn= -0.0000
     atom 104 (R=0.012)  charge=  0.3891  magn=  0.0000
     atom 105 (R=0.012)  charge=  0.3861  magn= -0.0000
     atom 106 (R=0.014)  charge=  0.8542  magn= -0.0001
     atom 107 (R=0.012)  charge=  0.3879  magn= -0.0000
     atom 108 (R=0.012)  charge=  0.3866  magn=  0.0000
     atom 109 (R=0.012)  charge=  0.3886  magn=  0.0001

     total cpu time spent up to now is     1017.1 secs

     End of self-consistent calculation

 ------ SPIN UP ------------


          k = 0.0000 0.0000 0.0000 (****** PWs)   bands (ev):

   -93.4474 -93.4405 -93.4215 -59.9613 -59.9450 -59.9278 -59.4481 -59.4311
   -59.4188 -59.1295 -59.1120 -59.0997 -28.8781 -28.7681 -28.7472 -28.5749
   -28.5349 -28.4913 -27.8360 -27.8126 -27.7860 -26.4839 -26.4683 -26.3725
   -26.2664 -26.2359 -26.1595 -24.6681 -21.5428 -21.5285 -21.5241 -21.2924
   -21.2523 -21.1872 -18.0652 -18.0580 -18.0396 -17.9843 -17.9638 -17.9571
   -17.8025 -17.7789 -17.7065 -17.6982 -17.6336 -17.5738 -16.8771 -16.6970
   -16.6686 -16.4777 -16.4140 -16.3591 -15.7045 -15.6969 -15.6147 -14.5849
   -14.5731 -14.5361 -14.2417 -14.1271 -14.0853 -13.8130 -13.7558 -13.7401
   -13.6851 -13.6207 -13.3049 -13.1577 -13.0854 -13.0684 -13.0224 -12.8762
   -12.8063 -12.7499 -12.7021 -12.6836 -12.5449 -12.3887 -12.3596 -12.2581
   -12.2258 -12.0541 -11.7542 -11.7286 -11.6811 -11.6138 -11.5075 -11.4697
   -11.4559 -11.4505 -11.4324 -11.3755 -11.3371 -11.2827 -11.1726 -11.1034
   -10.8926 -10.7193 -10.6350 -10.5697 -10.5192 -10.4662 -10.4162 -10.3814
   -10.3444 -10.3148 -10.2815 -10.2718 -10.1659 -10.0883 -10.0807 -10.0308
   -10.0283  -9.9951  -9.9787  -9.9007  -9.8690  -9.8587  -9.8253  -9.8070
    -9.7024  -9.6572  -9.6442  -9.5687  -9.4997  -9.4416  -9.2030  -9.1706
    -9.1556  -9.1219  -9.1126  -9.0994  -8.9572  -8.9215  -8.9057  -8.8763
    -8.8582  -8.8011  -8.7950  -8.7724  -8.7560  -8.7308  -8.7050  -8.6787
    -8.6539  -8.6326  -8.5946  -8.3036  -8.2186  -8.1972  -8.1788  -8.1713
    -8.1501  -7.7752  -7.2064  -6.9730  -6.9553  -6.4200  -6.4029  -6.3420
    -6.3144  -6.1349  -5.7583

 ------ SPIN DOWN ----------


          k = 0.0000 0.0000 0.0000 (****** PWs)   bands (ev):

   -92.3955 -92.3940 -92.3882 -58.5725 -58.5695 -58.5684 -58.5290 -58.5249
   -58.5180 -58.3643 -58.3481 -58.3429 -28.8688 -28.7615 -28.7389 -28.5645
   -28.5238 -28.4786 -27.8403 -27.8166 -27.7902 -26.4725 -26.4544 -26.3604
   -26.2508 -26.2172 -26.1413 -24.3890 -21.5447 -21.5307 -21.5264 -21.2951
   -21.2545 -21.1898 -18.0657 -18.0586 -18.0402 -17.9846 -17.9641 -17.9574
   -17.8034 -17.7796 -17.7072 -17.6986 -17.6337 -17.5741 -16.8702 -16.6960
   -16.6680 -16.4766 -16.4125 -16.3570 -15.7035 -15.6956 -15.6136 -14.5635
   -14.5536 -14.5157 -14.2107 -14.1001 -14.0580 -13.7886 -13.7282 -13.6941
   -13.6591 -13.5993 -13.3000 -13.1503 -13.0813 -13.0655 -12.9775 -12.8682
   -12.7982 -12.7363 -12.6806 -12.6681 -12.5151 -12.3309 -12.3045 -12.2354
   -12.2052 -12.0328 -11.7515 -11.7258 -11.6784 -11.5861 -11.4895 -11.4552
   -11.4465 -11.4392 -11.3915 -11.3385 -11.3125 -11.2558 -11.1587 -11.0925
   -10.8678 -10.6528 -10.5659 -10.5057 -10.4743 -10.4458 -10.3876 -10.3524
   -10.3318 -10.3024 -10.2683 -10.2527 -10.1626 -10.0687 -10.0577 -10.0185
   -10.0159  -9.9761  -9.9563  -9.8655  -9.8520  -9.8339  -9.8239  -9.8014
    -9.5788  -9.5543  -9.5227  -9.4893  -9.4424  -9.3008  -9.1850  -9.1590
    -9.1468  -9.1176  -9.1046  -9.0920  -8.9277  -8.9018  -8.8760  -8.8593
    -8.8086  -8.7721  -8.7575  -8.7336  -8.7125  -8.6665  -8.6628  -8.6221
    -8.6153  -8.5925  -8.5555  -8.2730  -8.1753  -8.1638  -8.1184  -8.0916
    -8.0758  -7.6789  -5.9858  -5.9113  -5.8995  -5.6763  -5.6653  -5.6246
    -5.2754  -5.2496  -4.5323

     highest occupied, lowest unoccupied level (ev):    -5.6246   -5.2754

!    total energy              =   -2278.71584601 Ry
     total all-electron energy =     -2278.715846 Ry
     estimated scf accuracy    <          7.5E-10 Ry

     The total energy is the sum of the following terms:
     one-electron contribution =  -17096.35463113 Ry
     hartree contribution      =    8508.88814883 Ry
     xc contribution           =    -361.04448102 Ry
     ewald contribution        =    7219.31701679 Ry
     one-center paw contrib.   =    -549.52189947 Ry

     total magnetization       =     3.00 Bohr mag/cell
     absolute magnetization    =     3.42 Bohr mag/cell

     convergence has been achieved in  32 iterations

     negative rho (up, down):  5.247E-02 4.820E-02

     Forces acting on atoms (cartesian axes, Ry/au):

     atom    1 type  1   force =    -0.01292810    0.01348548   -0.00959409
     atom    2 type  1   force =     0.00110104   -0.00285487    0.02271501
     atom    3 type  1   force =     0.01591192   -0.01070209   -0.01224115
     atom    4 type  2   force =    -0.00143018   -0.00119750   -0.00091708
     atom    5 type  2   force =    -0.01642340   -0.01530395    0.00314068
     atom    6 type  3   force =     0.01567533   -0.00501474   -0.01060603
     atom    7 type  3   force =     0.00787882    0.01153348    0.01386710
     atom    8 type  2   force =    -0.01888137   -0.01307550   -0.00661341
     atom    9 type  3   force =     0.01872942   -0.00503326   -0.00486529
     atom   10 type  3   force =     0.00097654    0.01976740   -0.00218320
     atom   11 type  2   force =    -0.01773365   -0.01309327   -0.00798097
     atom   12 type  3   force =     0.00411506    0.00061225    0.01935756
     atom   13 type  3   force =     0.00313031    0.01916828   -0.00546717
     atom   14 type  2   force =     0.00256603   -0.01091541    0.03575243
     atom   15 type  2   force =    -0.02208247    0.00733063   -0.03420276
     atom   16 type  2   force =     0.02083708   -0.00400035    0.03497499
     atom   17 type  2   force =    -0.01628170    0.02246879   -0.02395594
     atom   18 type  2   force =     0.02260657   -0.01790210   -0.02550047
     atom   19 type  2   force =    -0.02380483   -0.00405788    0.03342511
     atom   20 type  2   force =     0.02572675    0.00452623   -0.03161537
     atom   21 type  2   force =    -0.00940075    0.00546163    0.03538250
     atom   22 type  2   force =    -0.02430190    0.02463078   -0.01209958
     atom   23 type  2   force =     0.01953881   -0.03797176   -0.00567267
     atom   24 type  2   force =    -0.01717091    0.03650958    0.00638675
     atom   25 type  2   force =     0.02973334   -0.02033584   -0.01132143
     atom   26 type  4   force =     0.01775932    0.00462429   -0.00194084
     atom   27 type  4   force =     0.00373308    0.00127034   -0.00012613
     atom   28 type  4   force =    -0.00063284   -0.00155317   -0.00122698
     atom   29 type  3   force =    -0.00460428    0.00318079   -0.00586122
     atom   30 type  3   force =    -0.00022081   -0.00772531   -0.00142223
     atom   31 type  3   force =     0.00750681    0.00231787   -0.00198173
     atom   32 type  4   force =     0.00118357    0.00109985    0.00094553
     atom   33 type  3   force =    -0.00488333    0.00391263   -0.00490777
     atom   34 type  3   force =     0.00728568    0.00339130   -0.00170504
     atom   35 type  3   force =    -0.00173585    0.00286295    0.00716936
     atom   36 type  4   force =     0.00152391   -0.00164832    0.00081166
     atom   37 type  3   force =     0.00037617   -0.00787107   -0.00007788
     atom   38 type  3   force =    -0.00104889    0.00182599    0.00760377
     atom   39 type  3   force =     0.00750011    0.00249886   -0.00151109
     atom   40 type  4   force =    -0.00228188   -0.01497018   -0.00882515
     atom   41 type  4   force =    -0.00102666   -0.00197629   -0.00094238
     atom   42 type  4   force =    -0.00073292   -0.00166383   -0.00018397
     atom   43 type  3   force =    -0.00621492    0.00406378   -0.00262252
     atom   44 type  3   force =    -0.00130917   -0.00097524    0.00766625
     atom   45 type  3   force =    -0.00096300   -0.00738347   -0.00315651
     atom   46 type  4   force =     0.00210480   -0.00045757    0.00087113
     atom   47 type  3   force =     0.00729725    0.00270793   -0.00134709
     atom   48 type  3   force =    -0.00032052   -0.00717977   -0.00336818
     atom   49 type  3   force =    -0.00011479   -0.00142917    0.00783883
     atom   50 type  4   force =    -0.00060582   -0.00046569   -0.00199346
     atom   51 type  3   force =     0.00676351    0.00311533   -0.00253218
     atom   52 type  3   force =    -0.00570456    0.00439608   -0.00357540
     atom   53 type  3   force =    -0.00055057   -0.00702969   -0.00356386
     atom   54 type  4   force =     0.00233290    0.01794609   -0.00482214
     atom   55 type  4   force =     0.00027459    0.00312141   -0.00012971
     atom   56 type  4   force =    -0.00099160    0.00103465   -0.00082179
     atom   57 type  3   force =     0.00055335    0.00794323   -0.00166032
     atom   58 type  3   force =    -0.00358503   -0.00299285   -0.00628095
     atom   59 type  3   force =     0.00738461   -0.00248350   -0.00088540
     atom   60 type  4   force =    -0.00050221    0.00107759   -0.00052091
     atom   61 type  3   force =    -0.00000205    0.00801955   -0.00161604
     atom   62 type  3   force =    -0.00412459   -0.00071765    0.00675703
     atom   63 type  3   force =    -0.00470298   -0.00299941   -0.00553326
     atom   64 type  4   force =     0.00062701    0.00084813    0.00083804
     atom   65 type  3   force =     0.00060234    0.00815527   -0.00086400
     atom   66 type  3   force =     0.00747336   -0.00242822    0.00042877
     atom   67 type  3   force =    -0.00323896   -0.00069945    0.00729042
     atom   68 type  4   force =    -0.01764429   -0.00672712   -0.00506772
     atom   69 type  4   force =    -0.00350379   -0.00179241   -0.00049914
     atom   70 type  4   force =    -0.00000523   -0.00261741   -0.00006580
     atom   71 type  3   force =    -0.00662351   -0.00252094   -0.00389384
     atom   72 type  3   force =     0.00099927   -0.00497036    0.00591078
     atom   73 type  3   force =     0.00558619   -0.00181201   -0.00513521
     atom   74 type  4   force =    -0.00099382    0.00078489   -0.00086953
     atom   75 type  3   force =    -0.00687697   -0.00179165   -0.00384867
     atom   76 type  3   force =     0.00558388   -0.00063263   -0.00550684
     atom   77 type  3   force =    -0.00044308    0.00776797    0.00130804
     atom   78 type  4   force =    -0.00131191   -0.00011949    0.00117324
     atom   79 type  3   force =    -0.00692039   -0.00196102   -0.00337995
     atom   80 type  3   force =    -0.00101559    0.00749498    0.00244467
     atom   81 type  3   force =    -0.00005781   -0.00428129    0.00671626
     atom   82 type  4   force =     0.00802077    0.01291446    0.01243780
     atom   83 type  4   force =     0.00133705    0.00083392    0.00279280
     atom   84 type  4   force =     0.00070217    0.00182331   -0.00108936
     atom   85 type  3   force =     0.00564848   -0.00059146   -0.00551466
     atom   86 type  3   force =     0.00344985    0.00431257    0.00589460
     atom   87 type  3   force =    -0.00541884    0.00511181   -0.00324594
     atom   88 type  4   force =    -0.00051833   -0.00072885    0.00194942
     atom   89 type  3   force =    -0.00330750   -0.00654474    0.00268930
     atom   90 type  3   force =    -0.00611909    0.00471850   -0.00229755
     atom   91 type  3   force =     0.00294044    0.00363444    0.00657956
     atom   92 type  4   force =     0.00081678   -0.00143527    0.00027895
     atom   93 type  3   force =     0.00333102    0.00382755    0.00614951
     atom   94 type  3   force =     0.00597594   -0.00146255   -0.00496008
     atom   95 type  3   force =    -0.00203785   -0.00704264    0.00264601
     atom   96 type  4   force =    -0.01092311   -0.01618732    0.00580313
     atom   97 type  4   force =    -0.00128833   -0.00247054    0.00104692
     atom   98 type  4   force =    -0.00232440    0.00006794   -0.00095419
     atom   99 type  3   force =    -0.00513488   -0.00453667    0.00404220
     atom  100 type  3   force =    -0.00094803   -0.00208405   -0.00745371
     atom  101 type  3   force =    -0.00342414    0.00735408    0.00043933
     atom  102 type  4   force =    -0.00074393   -0.00018165    0.00204417
     atom  103 type  3   force =    -0.00464428   -0.00462250    0.00474837
     atom  104 type  3   force =    -0.00254975    0.00744647    0.00144195
     atom  105 type  3   force =     0.00713974   -0.00036577    0.00304584
     atom  106 type  4   force =     0.00052512   -0.00022459    0.00068362
     atom  107 type  3   force =    -0.00458271   -0.00491632    0.00408301
     atom  108 type  3   force =     0.00729550   -0.00129765    0.00257736
     atom  109 type  3   force =    -0.00026257   -0.00297405   -0.00752486

     Total force =     0.172889     Total SCF correction =     0.000033


     Computing stress (Cartesian axis) and pressure


     negative rho (up, down):  5.247E-02 4.820E-02
          total   stress  (Ry/bohr**3)                   (kbar)     P=        0.77
   0.00000500  -0.00000057  -0.00000016            0.74       -0.08       -0.02
  -0.00000057   0.00000505  -0.00000012           -0.08        0.74       -0.02
  -0.00000016  -0.00000012   0.00000563           -0.02       -0.02        0.83


     Writing all to output data dir ./out/Fe3_O_piv_6_H2O_3_LowSpin.save/ :
     XML data file, charge density, pseudopotentials, collected wavefunctions

     init_run     :     61.62s CPU     64.11s WALL (       1 calls)
     electrons    :    928.51s CPU    943.98s WALL (       1 calls)
     forces       :      9.56s CPU      9.92s WALL (       1 calls)
     stress       :    117.39s CPU    118.05s WALL (       1 calls)

     Called by init_run:
     wfcinit      :     45.37s CPU     45.82s WALL (       1 calls)
     potinit      :      0.94s CPU      1.07s WALL (       1 calls)
     hinit0       :      6.59s CPU      8.32s WALL (       1 calls)

     Called by electrons:
     c_bands      :    719.04s CPU    724.92s WALL (      32 calls)
     sum_band     :    144.83s CPU    150.88s WALL (      32 calls)
     v_of_rho     :     15.52s CPU     15.78s WALL (      33 calls)
     newd         :     30.22s CPU     32.97s WALL (      33 calls)
     PAW_pot      :     13.55s CPU     13.56s WALL (      33 calls)
     mix_rho      :      5.56s CPU      5.58s WALL (      32 calls)

     Called by c_bands:
     init_us_2    :     15.09s CPU     15.15s WALL (     134 calls)
     cegterg      :    700.12s CPU    705.93s WALL (      64 calls)

     Called by *egterg:
     cdiaghg      :     58.10s CPU     58.46s WALL (     376 calls)
     h_psi        :    460.13s CPU    462.26s WALL (     378 calls)
     s_psi        :     77.12s CPU     77.16s WALL (     378 calls)
     g_psi        :      1.27s CPU      1.28s WALL (     312 calls)

     Called by h_psi:
     h_psi:calbec :     81.98s CPU     82.02s WALL (     378 calls)
     vloc_psi     :    298.81s CPU    299.29s WALL (     378 calls)
     add_vuspsi   :     77.29s CPU     77.30s WALL (     378 calls)

     General routines
     calbec       :    113.93s CPU    113.97s WALL (     452 calls)
     fft          :     13.34s CPU     15.35s WALL (     735 calls)
     ffts         :      0.73s CPU      0.74s WALL (      64 calls)
     fftw         :    320.60s CPU    321.03s WALL (   67694 calls)

     Parallel routines

     PWSCF        :  18m48.72s CPU  19m38.41s WALL


   This run was terminated on:   9: 1:46  12Mar2026            

=------------------------------------------------------------------------------=
   JOB DONE.
=------------------------------------------------------------------------------=
