
     Program PWSCF v.7.3 starts on 11Mar2026 at  5:13:11 

     This program is part of the open-source Quantum ESPRESSO suite
     for quantum simulation of materials; please cite
         "P. Giannozzi et al., J. Phys.:Condens. Matter 21 395502 (2009);
         "P. Giannozzi et al., J. Phys.:Condens. Matter 29 465901 (2017);
         "P. Giannozzi et al., J. Chem. Phys. 152 154105 (2020);
          URL http://www.quantum-espresso.org", 
     in publications or presentations arising from this work. More details at
     http://www.quantum-espresso.org/quote

     Parallel version (MPI), running on    24 processors

     MPI processes distributed on     1 nodes
     91284 MiB available memory on the printing compute node when the environment starts

     Reading input from Fe_EtOH_3_LowSpin.in

     Current dimensions of program PWSCF are:
     Max number of different atomic species (ntypx) = 10
     Max number of k-points (npk) =  40000
     Max angular momentum in pseudopotentials (lmaxx) =  4
read_pp_mesh; mismatch in mesh size, discarding the one in header
read_pp_mesh; mismatch in mesh size, discarding the one in header
read_pp_mesh; mismatch in mesh size, discarding the one in header
read_pp_mesh; mismatch in mesh size, discarding the one in header
     file Fe.GGA-PBE-paw.UPF: wavefunction(s)  4S 3P 0P 3D 0D renormalized
     file O.GGA-PBE-paw.UPF: wavefunction(s)  0S 2P 0P renormalized
     file H.GGA-PBE-paw.UPF: wavefunction(s)  0S 0P renormalized
     file C.GGA-PBE-paw.UPF: wavefunction(s)  0S 0P renormalized
     Message from routine setup:
     the system is metallic, specify occupations

     R & G space division:  proc/nbgrp/npool/nimage =      24
     Subspace diagonalization in iterative solution of the eigenvalue problem:
     a serial algorithm will be used


     Parallelization info
     --------------------
     sticks:   dense  smooth     PW     G-vecs:    dense   smooth      PW
     Min        2167    2167    541               354173   354173   44271
     Max        2168    2168    542               354176   354176   44276
     Sum       52017   52017  12997              8500173  8500173 1062547

     Using Slab Decomposition



     bravais-lattice index     =            0
     lattice parameter (alat)  =      52.6122  a.u.
     unit-cell volume          =  139542.7664 (a.u.)^3
     number of atoms/cell      =           28
     number of atomic types    =            4
     number of electrons       =        73.00 (up:  37.00, down:  36.00)
     number of Kohn-Sham states=           37
     kinetic-energy cutoff     =      58.8000  Ry
     charge density cutoff     =     235.2000  Ry
     scf convergence threshold =      1.0E-09
     mixing beta               =       0.3000
     number of iterations used =            8  plain     mixing
     Exchange-correlation= SLA PW PBX PBC
                           (   1   4   3   4   0   0   0)

     celldm(1)=  52.612241  celldm(2)=   0.000000  celldm(3)=   0.000000
     celldm(4)=   0.000000  celldm(5)=   0.000000  celldm(6)=   0.000000

     crystal axes: (cart. coord. in units of alat)
               a(1) = (   1.000000   0.000000   0.000000 )  
               a(2) = (   0.000000   1.004173   0.000000 )  
               a(3) = (   0.000000   0.000000   0.954198 )  

     reciprocal axes: (cart. coord. in units 2 pi/alat)
               b(1) = (  1.000000  0.000000  0.000000 )  
               b(2) = (  0.000000  0.995844  0.000000 )  
               b(3) = (  0.000000  0.000000  1.048001 )  


     PseudoPot. # 1 for Fe read from file:
     /storage/nanosim/JTH_PBE/Fe.GGA-PBE-paw.UPF
     MD5 check sum: 6f5baa53d711f01c620cb678d0da43bc
     Pseudo is Projector augmented-wave + core cor, Zval = 16.0
     Generated using ATOMPAW code
     Shape of augmentation charge: SINC**2
     Using radial grid of 2342 points,  6 beta functions with: 
                l(1) =   0
                l(2) =   0
                l(3) =   1
                l(4) =   1
                l(5) =   2
                l(6) =   2
     Q(r) pseudized with 0 coefficients 


     PseudoPot. # 2 for O  read from file:
     /storage/nanosim/JTH_PBE/O.GGA-PBE-paw.UPF
     MD5 check sum: 736cbc7a9d52a6679d85906802ae4ba1
     Pseudo is Projector augmented-wave + core cor, Zval =  6.0
     Generated using ATOMPAW code
     Shape of augmentation charge: SINC**2
     Using radial grid of 2342 points,  4 beta functions with: 
                l(1) =   0
                l(2) =   0
                l(3) =   1
                l(4) =   1
     Q(r) pseudized with 0 coefficients 


     PseudoPot. # 3 for H  read from file:
     /storage/nanosim/JTH_PBE/H.GGA-PBE-paw.UPF
     MD5 check sum: 038daa4ccd301a845c8516faee96a7c5
     Pseudo is Projector augmented-wave + core cor, Zval =  1.0
     Generated using ATOMPAW code
     Shape of augmentation charge: SINC**2
     Using radial grid of 2342 points,  3 beta functions with: 
                l(1) =   0
                l(2) =   0
                l(3) =   1
     Q(r) pseudized with 0 coefficients 


     PseudoPot. # 4 for C  read from file:
     /storage/nanosim/JTH_PBE/C.GGA-PBE-paw.UPF
     MD5 check sum: 8a36bdb47dd4552c95d9f9e63f43b56b
     Pseudo is Projector augmented-wave + core cor, Zval =  4.0
     Generated using ATOMPAW code
     Shape of augmentation charge: SINC**2
     Using radial grid of 2342 points,  4 beta functions with: 
                l(1) =   0
                l(2) =   0
                l(3) =   1
                l(4) =   1
     Q(r) pseudized with 0 coefficients 


     atomic species   valence    mass     pseudopotential
     Fe               16.00    55.84500     Fe( 1.00)
     O                 6.00    16.00000     O ( 1.00)
     H                 1.00     1.00800     H ( 1.00)
     C                 4.00    12.01100     C ( 1.00)

     Starting magnetic structure 
     atomic species   magnetization
     Fe              0.062
     O               0.000
     H               0.000
     C               0.000

     No symmetry found



   Cartesian axes

     site n.     atom                  positions (alat units)
         1        Fe     tau(   1) = (   0.4649845   0.4672274   0.4441760  )
         2        O      tau(   2) = (   0.4316083   0.5244949   0.4232776  )
         3        O      tau(   3) = (   0.4405525   0.4429167   0.5054219  )
         4        O      tau(   4) = (   0.5225394   0.4333832   0.4231335  )
         5        H      tau(   5) = (   0.4042988   0.5208803   0.4017049  )
         6        C      tau(   6) = (   0.5740336   0.4383831   0.4357778  )
         7        H      tau(   7) = (   0.4408777   0.4632914   0.5338103  )
         8        C      tau(   8) = (   0.4382919   0.5768049   0.4325576  )
         9        H      tau(   9) = (   0.5201657   0.4119088   0.3956102  )
        10        C      tau(  10) = (   0.4211547   0.3952391   0.5186564  )
        11        H      tau(  11) = (   0.4763899   0.5814380   0.4414837  )
        12        H      tau(  12) = (   0.4176712   0.5840691   0.4658010  )
        13        C      tau(  13) = (   0.4216163   0.6073126   0.3923312  )
        14        H      tau(  14) = (   0.4430221   0.6021793   0.3591799  )
        15        H      tau(  15) = (   0.4257929   0.6449931   0.4028016  )
        16        H      tau(  16) = (   0.3838390   0.6014256   0.3822603  )
        17        H      tau(  17) = (   0.4019068   0.3819513   0.4868433  )
        18        C      tau(  18) = (   0.3916653   0.3959372   0.5629022  )
        19        H      tau(  19) = (   0.4528774   0.3715073   0.5231887  )
        20        H      tau(  20) = (   0.3591799   0.4185607   0.5588997  )
        21        H      tau(  21) = (   0.4104756   0.4095417   0.5950177  )
        22        H      tau(  22) = (   0.3801701   0.3591799   0.5707140  )
        23        H      tau(  23) = (   0.5748614   0.4435683   0.4748648  )
        24        H      tau(  24) = (   0.5863997   0.4724868   0.4194175  )
        25        C      tau(  25) = (   0.6036455   0.3976490   0.4183114  )
        26        H      tau(  26) = (   0.5908603   0.3628975   0.4324457  )
        27        H      tau(  27) = (   0.6408201   0.4041691   0.4294925  )
        28        H      tau(  28) = (   0.6051605   0.3935297   0.3788312  )

     number of k points=     1
                       cart. coord. in units 2pi/alat
        k(    1) = (   0.0000000   0.0000000   0.0000000), wk =   1.0000000

     Dense  grid:  8500173 G-vectors     FFT dimensions: ( 270, 270, 250)

     Estimated max dynamical RAM per process >       1.82 GB

     Estimated total dynamical RAM >      43.75 GB
     Generating pointlists ...
     new r_m :   0.0287 (alat units)  1.5083 (a.u.) for type    1
     new r_m :   0.0144 (alat units)  0.7584 (a.u.) for type    2
     new r_m :   0.0144 (alat units)  0.7584 (a.u.) for type    3
     new r_m :   0.0162 (alat units)  0.8528 (a.u.) for type    4

     Initial potential from superposition of free atoms

     starting charge      75.9988, renormalised to      73.0000

     negative rho (up, down):  2.118E-02 1.927E-02
     Starting wfcs are  180 randomized atomic wfcs
     Checking if some PAW data can be deallocated... 

     total cpu time spent up to now is       24.8 secs

     Self-consistent Calculation

     iteration #  1     ecut=    58.80 Ry     beta= 0.30
     Davidson diagonalization with overlap
     ethr =  1.00E-02,  avg # of iterations =  2.0

     negative rho (up, down):  2.385E-02 2.242E-02

     total cpu time spent up to now is       45.5 secs

     total energy              =    -577.26623360 Ry
     estimated scf accuracy    <      18.55081380 Ry

     total magnetization       =     1.00 Bohr mag/cell
     absolute magnetization    =     1.18 Bohr mag/cell

     iteration #  2     ecut=    58.80 Ry     beta= 0.30
     Davidson diagonalization with overlap
     ethr =  1.00E-02,  avg # of iterations =  6.0

     negative rho (up, down):  2.279E-02 2.165E-02

     total cpu time spent up to now is       69.9 secs

     total energy              =    -582.25026989 Ry
     estimated scf accuracy    <      38.50482945 Ry

     total magnetization       =     1.00 Bohr mag/cell
     absolute magnetization    =     1.11 Bohr mag/cell

     iteration #  3     ecut=    58.80 Ry     beta= 0.30
     Davidson diagonalization with overlap
     ethr =  1.00E-02,  avg # of iterations =  6.0

     negative rho (up, down):  2.337E-02 2.183E-02

     total cpu time spent up to now is       89.8 secs

     total energy              =    -583.75668462 Ry
     estimated scf accuracy    <       3.16276750 Ry

     total magnetization       =     1.00 Bohr mag/cell
     absolute magnetization    =     1.14 Bohr mag/cell

     iteration #  4     ecut=    58.80 Ry     beta= 0.30
     Davidson diagonalization with overlap
     ethr =  4.33E-03,  avg # of iterations =  4.5

     negative rho (up, down):  2.375E-02 2.196E-02

     total cpu time spent up to now is      109.4 secs

     total energy              =    -583.99983645 Ry
     estimated scf accuracy    <       0.69161628 Ry

     total magnetization       =     1.00 Bohr mag/cell
     absolute magnetization    =     1.46 Bohr mag/cell

     iteration #  5     ecut=    58.80 Ry     beta= 0.30
     Davidson diagonalization with overlap
     ethr =  9.47E-04,  avg # of iterations =  4.5

     negative rho (up, down):  2.464E-02 2.258E-02

     total cpu time spent up to now is      129.4 secs

     total energy              =    -584.00816543 Ry
     estimated scf accuracy    <       0.51797838 Ry

     total magnetization       =     1.00 Bohr mag/cell
     absolute magnetization    =     1.28 Bohr mag/cell

     iteration #  6     ecut=    58.80 Ry     beta= 0.30
     Davidson diagonalization with overlap
     ethr =  7.10E-04,  avg # of iterations =  4.0

     negative rho (up, down):  2.501E-02 2.268E-02

     total cpu time spent up to now is      148.8 secs

     total energy              =    -583.92030210 Ry
     estimated scf accuracy    <       1.00153183 Ry

     total magnetization       =     1.00 Bohr mag/cell
     absolute magnetization    =     3.29 Bohr mag/cell

     iteration #  7     ecut=    58.80 Ry     beta= 0.30
     Davidson diagonalization with overlap
     ethr =  7.10E-04,  avg # of iterations =  3.0

     negative rho (up, down):  2.573E-02 2.330E-02

     total cpu time spent up to now is      167.7 secs

     total energy              =    -584.07902948 Ry
     estimated scf accuracy    <       0.37262336 Ry

     total magnetization       =     1.00 Bohr mag/cell
     absolute magnetization    =     1.37 Bohr mag/cell

     iteration #  8     ecut=    58.80 Ry     beta= 0.30
     Davidson diagonalization with overlap
     ethr =  5.10E-04,  avg # of iterations =  1.0

     negative rho (up, down):  2.664E-02 2.413E-02

     total cpu time spent up to now is      185.7 secs

     total energy              =    -584.05428591 Ry
     estimated scf accuracy    <       0.22648346 Ry

     total magnetization       =     1.00 Bohr mag/cell
     absolute magnetization    =     1.34 Bohr mag/cell

     iteration #  9     ecut=    58.80 Ry     beta= 0.30
     Davidson diagonalization with overlap
     ethr =  3.10E-04,  avg # of iterations =  3.0

     negative rho (up, down):  2.663E-02 2.412E-02

     total cpu time spent up to now is      205.4 secs

     total energy              =    -584.11310833 Ry
     estimated scf accuracy    <       0.71224594 Ry

     total magnetization       =     1.00 Bohr mag/cell
     absolute magnetization    =     2.83 Bohr mag/cell

     iteration # 10     ecut=    58.80 Ry     beta= 0.30
     Davidson diagonalization with overlap
     ethr =  3.10E-04,  avg # of iterations =  1.0

     negative rho (up, down):  2.665E-02 2.409E-02

     total cpu time spent up to now is      223.4 secs

     total energy              =    -584.10886848 Ry
     estimated scf accuracy    <       0.64736469 Ry

     total magnetization       =     1.00 Bohr mag/cell
     absolute magnetization    =     2.89 Bohr mag/cell

     iteration # 11     ecut=    58.80 Ry     beta= 0.30
     Davidson diagonalization with overlap
     ethr =  3.10E-04,  avg # of iterations =  1.0

     negative rho (up, down):  2.661E-02 2.409E-02

     total cpu time spent up to now is      241.5 secs

     total energy              =    -584.11228498 Ry
     estimated scf accuracy    <       0.57689359 Ry

     total magnetization       =     1.00 Bohr mag/cell
     absolute magnetization    =     2.94 Bohr mag/cell

     iteration # 12     ecut=    58.80 Ry     beta= 0.30
     Davidson diagonalization with overlap
     ethr =  3.10E-04,  avg # of iterations =  1.0

     negative rho (up, down):  2.666E-02 2.413E-02

     total cpu time spent up to now is      259.6 secs

     total energy              =    -584.11878222 Ry
     estimated scf accuracy    <       0.64463859 Ry

     total magnetization       =     1.00 Bohr mag/cell
     absolute magnetization    =     2.85 Bohr mag/cell

     iteration # 13     ecut=    58.80 Ry     beta= 0.30
     Davidson diagonalization with overlap
     ethr =  3.10E-04,  avg # of iterations =  1.0

     negative rho (up, down):  2.710E-02 2.413E-02

     total cpu time spent up to now is      277.6 secs

     total energy              =    -584.11187879 Ry
     estimated scf accuracy    <       0.71856415 Ry

     total magnetization       =     1.00 Bohr mag/cell
     absolute magnetization    =     2.79 Bohr mag/cell

     iteration # 14     ecut=    58.80 Ry     beta= 0.30
     Davidson diagonalization with overlap
     ethr =  3.10E-04,  avg # of iterations =  3.0

     negative rho (up, down):  2.704E-02 2.413E-02

     total cpu time spent up to now is      296.2 secs

     total energy              =    -584.12478241 Ry
     estimated scf accuracy    <       1.03922483 Ry

     total magnetization       =     1.00 Bohr mag/cell
     absolute magnetization    =     3.98 Bohr mag/cell

     iteration # 15     ecut=    58.80 Ry     beta= 0.30
     Davidson diagonalization with overlap
     ethr =  3.10E-04,  avg # of iterations =  1.0

     negative rho (up, down):  2.766E-02 2.419E-02

     total cpu time spent up to now is      314.3 secs

     total energy              =    -584.12024955 Ry
     estimated scf accuracy    <       1.04513373 Ry

     total magnetization       =     1.00 Bohr mag/cell
     absolute magnetization    =     3.96 Bohr mag/cell

     iteration # 16     ecut=    58.80 Ry     beta= 0.30
     Davidson diagonalization with overlap
     ethr =  3.10E-04,  avg # of iterations =  5.0

     negative rho (up, down):  2.688E-02 2.383E-02

     total cpu time spent up to now is      333.3 secs

     total energy              =    -584.06123653 Ry
     estimated scf accuracy    <       1.24107915 Ry

     total magnetization       =     1.00 Bohr mag/cell
     absolute magnetization    =     4.33 Bohr mag/cell

     iteration # 17     ecut=    58.80 Ry     beta= 0.30
     Davidson diagonalization with overlap
     ethr =  3.10E-04,  avg # of iterations =  4.0

     negative rho (up, down):  2.747E-02 2.402E-02

     total cpu time spent up to now is      352.3 secs

     total energy              =    -584.09274664 Ry
     estimated scf accuracy    <       0.13746812 Ry

     total magnetization       =     1.00 Bohr mag/cell
     absolute magnetization    =     2.88 Bohr mag/cell

     iteration # 18     ecut=    58.80 Ry     beta= 0.30
     Davidson diagonalization with overlap
     ethr =  1.88E-04,  avg # of iterations =  6.5

     negative rho (up, down):  2.737E-02 2.400E-02

     total cpu time spent up to now is      371.6 secs

     total energy              =    -584.10184629 Ry
     estimated scf accuracy    <       0.47828113 Ry

     total magnetization       =     1.00 Bohr mag/cell
     absolute magnetization    =     3.56 Bohr mag/cell

     iteration # 19     ecut=    58.80 Ry     beta= 0.30
     Davidson diagonalization with overlap
     ethr =  1.88E-04,  avg # of iterations =  1.0

     negative rho (up, down):  2.712E-02 2.407E-02

     total cpu time spent up to now is      389.7 secs

     total energy              =    -584.05452111 Ry
     estimated scf accuracy    <       0.42978304 Ry

     total magnetization       =     1.00 Bohr mag/cell
     absolute magnetization    =     3.56 Bohr mag/cell

     iteration # 20     ecut=    58.80 Ry     beta= 0.30
     Davidson diagonalization with overlap
     ethr =  1.88E-04,  avg # of iterations =  3.5

     negative rho (up, down):  2.706E-02 2.401E-02

     total cpu time spent up to now is      409.3 secs

     total energy              =    -584.09041225 Ry
     estimated scf accuracy    <       0.05352588 Ry

     total magnetization       =     1.00 Bohr mag/cell
     absolute magnetization    =     2.22 Bohr mag/cell

     iteration # 21     ecut=    58.80 Ry     beta= 0.30
     Davidson diagonalization with overlap
     ethr =  7.33E-05,  avg # of iterations =  3.5

     negative rho (up, down):  2.711E-02 2.407E-02

     total cpu time spent up to now is      427.9 secs

     total energy              =    -584.09156149 Ry
     estimated scf accuracy    <       0.03961682 Ry

     total magnetization       =     1.00 Bohr mag/cell
     absolute magnetization    =     2.21 Bohr mag/cell

     iteration # 22     ecut=    58.80 Ry     beta= 0.30
     Davidson diagonalization with overlap
     ethr =  5.43E-05,  avg # of iterations =  3.5

     negative rho (up, down):  2.704E-02 2.402E-02

     total cpu time spent up to now is      446.7 secs

     total energy              =    -584.09200728 Ry
     estimated scf accuracy    <       0.03195898 Ry

     total magnetization       =     1.00 Bohr mag/cell
     absolute magnetization    =     2.54 Bohr mag/cell

     iteration # 23     ecut=    58.80 Ry     beta= 0.30
     Davidson diagonalization with overlap
     ethr =  4.38E-05,  avg # of iterations =  4.0

     negative rho (up, down):  2.699E-02 2.402E-02

     total cpu time spent up to now is      465.4 secs

     total energy              =    -584.08806425 Ry
     estimated scf accuracy    <       0.03001915 Ry

     total magnetization       =     1.00 Bohr mag/cell
     absolute magnetization    =     2.50 Bohr mag/cell

     iteration # 24     ecut=    58.80 Ry     beta= 0.30
     Davidson diagonalization with overlap
     ethr =  4.11E-05,  avg # of iterations =  3.0

     negative rho (up, down):  2.707E-02 2.408E-02

     total cpu time spent up to now is      484.5 secs

     total energy              =    -584.09380032 Ry
     estimated scf accuracy    <       0.02786629 Ry

     total magnetization       =     1.00 Bohr mag/cell
     absolute magnetization    =     2.24 Bohr mag/cell

     iteration # 25     ecut=    58.80 Ry     beta= 0.30
     Davidson diagonalization with overlap
     ethr =  3.82E-05,  avg # of iterations =  1.0

     negative rho (up, down):  2.740E-02 2.438E-02

     total cpu time spent up to now is      502.5 secs

     total energy              =    -584.09446963 Ry
     estimated scf accuracy    <       0.02595523 Ry

     total magnetization       =     1.00 Bohr mag/cell
     absolute magnetization    =     2.25 Bohr mag/cell

     iteration # 26     ecut=    58.80 Ry     beta= 0.30
     Davidson diagonalization with overlap
     ethr =  3.56E-05,  avg # of iterations =  5.0

     negative rho (up, down):  2.733E-02 2.432E-02

     total cpu time spent up to now is      522.2 secs

     total energy              =    -584.09767699 Ry
     estimated scf accuracy    <       0.03259280 Ry

     total magnetization       =     1.00 Bohr mag/cell
     absolute magnetization    =     2.32 Bohr mag/cell

     iteration # 27     ecut=    58.80 Ry     beta= 0.30
     Davidson diagonalization with overlap
     ethr =  3.56E-05,  avg # of iterations =  1.0

     negative rho (up, down):  2.734E-02 2.432E-02

     total cpu time spent up to now is      540.2 secs

     total energy              =    -584.09819349 Ry
     estimated scf accuracy    <       0.03086198 Ry

     total magnetization       =     1.00 Bohr mag/cell
     absolute magnetization    =     2.32 Bohr mag/cell

     iteration # 28     ecut=    58.80 Ry     beta= 0.30
     Davidson diagonalization with overlap
     ethr =  3.56E-05,  avg # of iterations =  3.0

     negative rho (up, down):  2.750E-02 2.447E-02

     total cpu time spent up to now is      558.7 secs

     total energy              =    -584.09417222 Ry
     estimated scf accuracy    <       0.04422894 Ry

     total magnetization       =     1.00 Bohr mag/cell
     absolute magnetization    =     2.25 Bohr mag/cell

     iteration # 29     ecut=    58.80 Ry     beta= 0.30
     Davidson diagonalization with overlap
     ethr =  3.56E-05,  avg # of iterations =  4.0

     negative rho (up, down):  2.736E-02 2.433E-02

     total cpu time spent up to now is      577.9 secs

     total energy              =    -584.09039032 Ry
     estimated scf accuracy    <       0.04270294 Ry

     total magnetization       =     1.00 Bohr mag/cell
     absolute magnetization    =     2.68 Bohr mag/cell

     iteration # 30     ecut=    58.80 Ry     beta= 0.30
     Davidson diagonalization with overlap
     ethr =  3.56E-05,  avg # of iterations =  5.5

     negative rho (up, down):  2.729E-02 2.425E-02

     total cpu time spent up to now is      597.7 secs

     total energy              =    -584.09933626 Ry
     estimated scf accuracy    <       0.00969792 Ry

     total magnetization       =     1.00 Bohr mag/cell
     absolute magnetization    =     2.46 Bohr mag/cell

     iteration # 31     ecut=    58.80 Ry     beta= 0.30
     Davidson diagonalization with overlap
     ethr =  1.33E-05,  avg # of iterations =  1.5

     negative rho (up, down):  2.729E-02 2.424E-02

     total cpu time spent up to now is      615.9 secs

     total energy              =    -584.09897000 Ry
     estimated scf accuracy    <       0.00912974 Ry

     total magnetization       =     1.00 Bohr mag/cell
     absolute magnetization    =     2.46 Bohr mag/cell

     iteration # 32     ecut=    58.80 Ry     beta= 0.30
     Davidson diagonalization with overlap
     ethr =  1.25E-05,  avg # of iterations =  3.0

     negative rho (up, down):  2.728E-02 2.423E-02

     total cpu time spent up to now is      634.4 secs

     total energy              =    -584.09783891 Ry
     estimated scf accuracy    <       0.00710321 Ry

     total magnetization       =     1.00 Bohr mag/cell
     absolute magnetization    =     2.54 Bohr mag/cell

     iteration # 33     ecut=    58.80 Ry     beta= 0.30
     Davidson diagonalization with overlap
     ethr =  9.73E-06,  avg # of iterations =  1.0

     negative rho (up, down):  2.730E-02 2.424E-02

     total cpu time spent up to now is      652.4 secs

     total energy              =    -584.09838979 Ry
     estimated scf accuracy    <       0.00540351 Ry

     total magnetization       =     1.00 Bohr mag/cell
     absolute magnetization    =     2.54 Bohr mag/cell

     iteration # 34     ecut=    58.80 Ry     beta= 0.30
     Davidson diagonalization with overlap
     ethr =  7.40E-06,  avg # of iterations =  3.0

     negative rho (up, down):  2.730E-02 2.425E-02

     total cpu time spent up to now is      670.9 secs

     total energy              =    -584.09928151 Ry
     estimated scf accuracy    <       0.00397636 Ry

     total magnetization       =     1.00 Bohr mag/cell
     absolute magnetization    =     2.57 Bohr mag/cell

     iteration # 35     ecut=    58.80 Ry     beta= 0.30
     Davidson diagonalization with overlap
     ethr =  5.45E-06,  avg # of iterations =  1.0

     negative rho (up, down):  2.729E-02 2.426E-02

     total cpu time spent up to now is      688.9 secs

     total energy              =    -584.09878462 Ry
     estimated scf accuracy    <       0.00485338 Ry

     total magnetization       =     1.00 Bohr mag/cell
     absolute magnetization    =     2.57 Bohr mag/cell

     iteration # 36     ecut=    58.80 Ry     beta= 0.30
     Davidson diagonalization with overlap
     ethr =  5.45E-06,  avg # of iterations =  4.5

     negative rho (up, down):  2.731E-02 2.427E-02

     total cpu time spent up to now is      708.0 secs

     total energy              =    -584.09922534 Ry
     estimated scf accuracy    <       0.00596907 Ry

     total magnetization       =     1.00 Bohr mag/cell
     absolute magnetization    =     2.46 Bohr mag/cell

     iteration # 37     ecut=    58.80 Ry     beta= 0.30
     Davidson diagonalization with overlap
     ethr =  5.45E-06,  avg # of iterations =  1.0

     negative rho (up, down):  2.731E-02 2.427E-02

     total cpu time spent up to now is      726.0 secs

     total energy              =    -584.09898392 Ry
     estimated scf accuracy    <       0.00481976 Ry

     total magnetization       =     1.00 Bohr mag/cell
     absolute magnetization    =     2.46 Bohr mag/cell

     iteration # 38     ecut=    58.80 Ry     beta= 0.30
     Davidson diagonalization with overlap
     ethr =  5.45E-06,  avg # of iterations =  4.5

     negative rho (up, down):  2.732E-02 2.430E-02

     total cpu time spent up to now is      745.1 secs

     total energy              =    -584.09988698 Ry
     estimated scf accuracy    <       0.00291505 Ry

     total magnetization       =     1.00 Bohr mag/cell
     absolute magnetization    =     2.59 Bohr mag/cell

     iteration # 39     ecut=    58.80 Ry     beta= 0.30
     Davidson diagonalization with overlap
     ethr =  3.99E-06,  avg # of iterations =  1.0

     negative rho (up, down):  2.731E-02 2.431E-02

     total cpu time spent up to now is      763.1 secs

     total energy              =    -584.09969944 Ry
     estimated scf accuracy    <       0.00358513 Ry

     total magnetization       =     1.00 Bohr mag/cell
     absolute magnetization    =     2.59 Bohr mag/cell

     iteration # 40     ecut=    58.80 Ry     beta= 0.30
     Davidson diagonalization with overlap
     ethr =  3.99E-06,  avg # of iterations =  5.0

     negative rho (up, down):  2.731E-02 2.430E-02

     total cpu time spent up to now is      782.5 secs

     total energy              =    -584.10034411 Ry
     estimated scf accuracy    <       0.00664162 Ry

     total magnetization       =     1.00 Bohr mag/cell
     absolute magnetization    =     2.54 Bohr mag/cell

     iteration # 41     ecut=    58.80 Ry     beta= 0.30
     Davidson diagonalization with overlap
     ethr =  3.99E-06,  avg # of iterations =  1.0

     negative rho (up, down):  2.731E-02 2.430E-02

     total cpu time spent up to now is      800.5 secs

     total energy              =    -584.10010557 Ry
     estimated scf accuracy    <       0.00666938 Ry

     total magnetization       =     1.00 Bohr mag/cell
     absolute magnetization    =     2.54 Bohr mag/cell

     iteration # 42     ecut=    58.80 Ry     beta= 0.30
     Davidson diagonalization with overlap
     ethr =  3.99E-06,  avg # of iterations =  1.0

     negative rho (up, down):  2.728E-02 2.421E-02

     total cpu time spent up to now is      818.5 secs

     total energy              =    -584.09791387 Ry
     estimated scf accuracy    <       0.00600676 Ry

     total magnetization       =     1.00 Bohr mag/cell
     absolute magnetization    =     2.54 Bohr mag/cell

     iteration # 43     ecut=    58.80 Ry     beta= 0.30
     Davidson diagonalization with overlap
     ethr =  3.99E-06,  avg # of iterations =  6.5

     negative rho (up, down):  2.729E-02 2.426E-02

     total cpu time spent up to now is      841.0 secs

     total energy              =    -584.09698334 Ry
     estimated scf accuracy    <       0.03338841 Ry

     total magnetization       =     1.00 Bohr mag/cell
     absolute magnetization    =     2.48 Bohr mag/cell

     iteration # 44     ecut=    58.80 Ry     beta= 0.30
     Davidson diagonalization with overlap
     ethr =  3.99E-06,  avg # of iterations =  7.0

     negative rho (up, down):  2.729E-02 2.425E-02

     total cpu time spent up to now is      862.3 secs

     total energy              =    -584.09998719 Ry
     estimated scf accuracy    <       0.00111777 Ry

     total magnetization       =     1.00 Bohr mag/cell
     absolute magnetization    =     2.50 Bohr mag/cell

     iteration # 45     ecut=    58.80 Ry     beta= 0.30
     Davidson diagonalization with overlap
     ethr =  1.53E-06,  avg # of iterations =  1.0

     negative rho (up, down):  2.728E-02 2.423E-02

     total cpu time spent up to now is      880.3 secs

     total energy              =    -584.10007735 Ry
     estimated scf accuracy    <       0.00119869 Ry

     total magnetization       =     1.00 Bohr mag/cell
     absolute magnetization    =     2.50 Bohr mag/cell

     iteration # 46     ecut=    58.80 Ry     beta= 0.30
     Davidson diagonalization with overlap
     ethr =  1.53E-06,  avg # of iterations =  5.5

     negative rho (up, down):  2.728E-02 2.425E-02

     total cpu time spent up to now is      900.0 secs

     total energy              =    -584.09942956 Ry
     estimated scf accuracy    <       0.00511060 Ry

     total magnetization       =     1.00 Bohr mag/cell
     absolute magnetization    =     2.49 Bohr mag/cell

     iteration # 47     ecut=    58.80 Ry     beta= 0.30
     Davidson diagonalization with overlap
     ethr =  1.53E-06,  avg # of iterations =  5.5

     negative rho (up, down):  2.727E-02 2.423E-02

     total cpu time spent up to now is      919.8 secs

     total energy              =    -584.09997474 Ry
     estimated scf accuracy    <       0.00027948 Ry

     total magnetization       =     1.00 Bohr mag/cell
     absolute magnetization    =     2.56 Bohr mag/cell

     iteration # 48     ecut=    58.80 Ry     beta= 0.30
     Davidson diagonalization with overlap
     ethr =  3.83E-07,  avg # of iterations =  5.5

     negative rho (up, down):  2.726E-02 2.422E-02

     total cpu time spent up to now is      939.5 secs

     total energy              =    -584.10004911 Ry
     estimated scf accuracy    <       0.00015854 Ry

     total magnetization       =     1.00 Bohr mag/cell
     absolute magnetization    =     2.54 Bohr mag/cell

     iteration # 49     ecut=    58.80 Ry     beta= 0.30
     Davidson diagonalization with overlap
     ethr =  2.17E-07,  avg # of iterations =  1.0

     negative rho (up, down):  2.726E-02 2.421E-02

     total cpu time spent up to now is      957.6 secs

     total energy              =    -584.10005337 Ry
     estimated scf accuracy    <       0.00015366 Ry

     total magnetization       =     1.00 Bohr mag/cell
     absolute magnetization    =     2.54 Bohr mag/cell

     iteration # 50     ecut=    58.80 Ry     beta= 0.30
     Davidson diagonalization with overlap
     ethr =  2.10E-07,  avg # of iterations =  5.0

     negative rho (up, down):  2.726E-02 2.421E-02

     total cpu time spent up to now is      976.9 secs

     total energy              =    -584.10006305 Ry
     estimated scf accuracy    <       0.00020772 Ry

     total magnetization       =     1.00 Bohr mag/cell
     absolute magnetization    =     2.53 Bohr mag/cell

     iteration # 51     ecut=    58.80 Ry     beta= 0.30
     Davidson diagonalization with overlap
     ethr =  2.10E-07,  avg # of iterations =  1.0

     negative rho (up, down):  2.726E-02 2.421E-02

     total cpu time spent up to now is      995.1 secs

     total energy              =    -584.10004319 Ry
     estimated scf accuracy    <       0.00015350 Ry

     total magnetization       =     1.00 Bohr mag/cell
     absolute magnetization    =     2.53 Bohr mag/cell

     iteration # 52     ecut=    58.80 Ry     beta= 0.30
     Davidson diagonalization with overlap
     ethr =  2.10E-07,  avg # of iterations =  5.0

     negative rho (up, down):  2.726E-02 2.421E-02

     total cpu time spent up to now is     1014.7 secs

     total energy              =    -584.10008233 Ry
     estimated scf accuracy    <       0.00017438 Ry

     total magnetization       =     1.00 Bohr mag/cell
     absolute magnetization    =     2.55 Bohr mag/cell

     iteration # 53     ecut=    58.80 Ry     beta= 0.30
     Davidson diagonalization with overlap
     ethr =  2.10E-07,  avg # of iterations =  1.0

     negative rho (up, down):  2.726E-02 2.421E-02

     total cpu time spent up to now is     1032.8 secs

     total energy              =    -584.10007764 Ry
     estimated scf accuracy    <       0.00012835 Ry

     total magnetization       =     1.00 Bohr mag/cell
     absolute magnetization    =     2.55 Bohr mag/cell

     iteration # 54     ecut=    58.80 Ry     beta= 0.30
     Davidson diagonalization with overlap
     ethr =  1.76E-07,  avg # of iterations =  3.0

     negative rho (up, down):  2.726E-02 2.420E-02

     total cpu time spent up to now is     1051.4 secs

     total energy              =    -584.10009723 Ry
     estimated scf accuracy    <       0.00001308 Ry

     total magnetization       =     1.00 Bohr mag/cell
     absolute magnetization    =     2.53 Bohr mag/cell

     iteration # 55     ecut=    58.80 Ry     beta= 0.30
     Davidson diagonalization with overlap
     ethr =  1.79E-08,  avg # of iterations =  5.5

     negative rho (up, down):  2.726E-02 2.420E-02

     total cpu time spent up to now is     1072.1 secs

     total energy              =    -584.10010499 Ry
     estimated scf accuracy    <       0.00005001 Ry

     total magnetization       =     1.00 Bohr mag/cell
     absolute magnetization    =     2.53 Bohr mag/cell

     iteration # 56     ecut=    58.80 Ry     beta= 0.30
     Davidson diagonalization with overlap
     ethr =  1.79E-08,  avg # of iterations =  1.0

     negative rho (up, down):  2.726E-02 2.420E-02

     total cpu time spent up to now is     1090.1 secs

     total energy              =    -584.10010380 Ry
     estimated scf accuracy    <       0.00003960 Ry

     total magnetization       =     1.00 Bohr mag/cell
     absolute magnetization    =     2.53 Bohr mag/cell

     iteration # 57     ecut=    58.80 Ry     beta= 0.30
     Davidson diagonalization with overlap
     ethr =  1.79E-08,  avg # of iterations =  5.5

     negative rho (up, down):  2.726E-02 2.420E-02

     total cpu time spent up to now is     1112.5 secs

     total energy              =    -584.10012947 Ry
     estimated scf accuracy    <       0.00021102 Ry

     total magnetization       =     1.00 Bohr mag/cell
     absolute magnetization    =     2.55 Bohr mag/cell

     iteration # 58     ecut=    58.80 Ry     beta= 0.30
     Davidson diagonalization with overlap
     ethr =  1.79E-08,  avg # of iterations =  5.5

     negative rho (up, down):  2.727E-02 2.420E-02

     total cpu time spent up to now is     1132.1 secs

     total energy              =    -584.10013513 Ry
     estimated scf accuracy    <       0.00009415 Ry

     total magnetization       =     1.00 Bohr mag/cell
     absolute magnetization    =     2.55 Bohr mag/cell

     iteration # 59     ecut=    58.80 Ry     beta= 0.30
     Davidson diagonalization with overlap
     ethr =  1.79E-08,  avg # of iterations =  3.0

     negative rho (up, down):  2.727E-02 2.419E-02

     total cpu time spent up to now is     1150.7 secs

     total energy              =    -584.10013089 Ry
     estimated scf accuracy    <       0.00008814 Ry

     total magnetization       =     1.00 Bohr mag/cell
     absolute magnetization    =     2.55 Bohr mag/cell

     iteration # 60     ecut=    58.80 Ry     beta= 0.30
     Davidson diagonalization with overlap
     ethr =  1.79E-08,  avg # of iterations =  3.0

     negative rho (up, down):  2.727E-02 2.420E-02

     total cpu time spent up to now is     1169.7 secs

     total energy              =    -584.10012644 Ry
     estimated scf accuracy    <       0.00001697 Ry

     total magnetization       =     1.00 Bohr mag/cell
     absolute magnetization    =     2.54 Bohr mag/cell

     iteration # 61     ecut=    58.80 Ry     beta= 0.30
     Davidson diagonalization with overlap
     ethr =  1.79E-08,  avg # of iterations =  2.5

     negative rho (up, down):  2.727E-02 2.420E-02

     total cpu time spent up to now is     1188.2 secs

     total energy              =    -584.10012871 Ry
     estimated scf accuracy    <       0.00001638 Ry

     total magnetization       =     1.00 Bohr mag/cell
     absolute magnetization    =     2.54 Bohr mag/cell

     iteration # 62     ecut=    58.80 Ry     beta= 0.30
     Davidson diagonalization with overlap
     ethr =  1.79E-08,  avg # of iterations =  3.0

     negative rho (up, down):  2.727E-02 2.420E-02

     total cpu time spent up to now is     1207.4 secs

     total energy              =    -584.10013225 Ry
     estimated scf accuracy    <       0.00009052 Ry

     total magnetization       =     1.00 Bohr mag/cell
     absolute magnetization    =     2.55 Bohr mag/cell

     iteration # 63     ecut=    58.80 Ry     beta= 0.30
     Davidson diagonalization with overlap
     ethr =  1.79E-08,  avg # of iterations =  5.0

     negative rho (up, down):  2.727E-02 2.419E-02

     total cpu time spent up to now is     1227.1 secs

     total energy              =    -584.10013829 Ry
     estimated scf accuracy    <       0.00003391 Ry

     total magnetization       =     1.00 Bohr mag/cell
     absolute magnetization    =     2.54 Bohr mag/cell

     iteration # 64     ecut=    58.80 Ry     beta= 0.30
     Davidson diagonalization with overlap
     ethr =  1.79E-08,  avg # of iterations =  5.5

     negative rho (up, down):  2.727E-02 2.419E-02

     total cpu time spent up to now is     1247.9 secs

     total energy              =    -584.10015455 Ry
     estimated scf accuracy    <       0.00001587 Ry

     total magnetization       =     1.00 Bohr mag/cell
     absolute magnetization    =     2.54 Bohr mag/cell

     iteration # 65     ecut=    58.80 Ry     beta= 0.30
     Davidson diagonalization with overlap
     ethr =  1.79E-08,  avg # of iterations =  5.5

     negative rho (up, down):  2.727E-02 2.419E-02

     total cpu time spent up to now is     1269.3 secs

     total energy              =    -584.10016680 Ry
     estimated scf accuracy    <       0.00000713 Ry

     total magnetization       =     1.00 Bohr mag/cell
     absolute magnetization    =     2.53 Bohr mag/cell

     iteration # 66     ecut=    58.80 Ry     beta= 0.30
     Davidson diagonalization with overlap
     ethr =  9.76E-09,  avg # of iterations =  1.0

     negative rho (up, down):  2.727E-02 2.419E-02

     total cpu time spent up to now is     1287.4 secs

     total energy              =    -584.10016884 Ry
     estimated scf accuracy    <       0.00000721 Ry

     total magnetization       =     1.00 Bohr mag/cell
     absolute magnetization    =     2.53 Bohr mag/cell

     iteration # 67     ecut=    58.80 Ry     beta= 0.30
     Davidson diagonalization with overlap
     ethr =  9.76E-09,  avg # of iterations =  3.0

     negative rho (up, down):  2.727E-02 2.419E-02

     total cpu time spent up to now is     1306.0 secs

     total energy              =    -584.10017054 Ry
     estimated scf accuracy    <       0.00000618 Ry

     total magnetization       =     1.00 Bohr mag/cell
     absolute magnetization    =     2.53 Bohr mag/cell

     iteration # 68     ecut=    58.80 Ry     beta= 0.30
     Davidson diagonalization with overlap
     ethr =  8.47E-09,  avg # of iterations =  6.0

     negative rho (up, down):  2.727E-02 2.418E-02

     total cpu time spent up to now is     1327.2 secs

     total energy              =    -584.10016684 Ry
     estimated scf accuracy    <       0.00001264 Ry

     total magnetization       =     1.00 Bohr mag/cell
     absolute magnetization    =     2.54 Bohr mag/cell

     iteration # 69     ecut=    58.80 Ry     beta= 0.30
     Davidson diagonalization with overlap
     ethr =  8.47E-09,  avg # of iterations =  6.0

     negative rho (up, down):  2.727E-02 2.418E-02

     total cpu time spent up to now is     1350.4 secs

     total energy              =    -584.10019949 Ry
     estimated scf accuracy    <       0.00000250 Ry

     total magnetization       =     1.00 Bohr mag/cell
     absolute magnetization    =     2.53 Bohr mag/cell

     iteration # 70     ecut=    58.80 Ry     beta= 0.30
     Davidson diagonalization with overlap
     ethr =  3.42E-09,  avg # of iterations =  6.0

     negative rho (up, down):  2.727E-02 2.418E-02

     total cpu time spent up to now is     1370.8 secs

     total energy              =    -584.10020271 Ry
     estimated scf accuracy    <       0.00000767 Ry

     total magnetization       =     1.00 Bohr mag/cell
     absolute magnetization    =     2.54 Bohr mag/cell

     iteration # 71     ecut=    58.80 Ry     beta= 0.30
     Davidson diagonalization with overlap
     ethr =  3.42E-09,  avg # of iterations =  5.5

     negative rho (up, down):  2.727E-02 2.418E-02

     total cpu time spent up to now is     1391.4 secs

     total energy              =    -584.10020669 Ry
     estimated scf accuracy    <       0.00000225 Ry

     total magnetization       =     1.00 Bohr mag/cell
     absolute magnetization    =     2.53 Bohr mag/cell

     iteration # 72     ecut=    58.80 Ry     beta= 0.30
     Davidson diagonalization with overlap
     ethr =  3.08E-09,  avg # of iterations =  5.5

     negative rho (up, down):  2.727E-02 2.418E-02

     total cpu time spent up to now is     1412.2 secs

     total energy              =    -584.10021018 Ry
     estimated scf accuracy    <       0.00000097 Ry

     total magnetization       =     1.00 Bohr mag/cell
     absolute magnetization    =     2.53 Bohr mag/cell

     iteration # 73     ecut=    58.80 Ry     beta= 0.30
     Davidson diagonalization with overlap
     ethr =  1.33E-09,  avg # of iterations =  6.0

     negative rho (up, down):  2.727E-02 2.418E-02

     total cpu time spent up to now is     1435.5 secs

     total energy              =    -584.10021847 Ry
     estimated scf accuracy    <       0.00000038 Ry

     total magnetization       =     1.00 Bohr mag/cell
     absolute magnetization    =     2.53 Bohr mag/cell

     iteration # 74     ecut=    58.80 Ry     beta= 0.30
     Davidson diagonalization with overlap
     ethr =  5.18E-10,  avg # of iterations =  6.0

     negative rho (up, down):  2.727E-02 2.418E-02

     total cpu time spent up to now is     1457.5 secs

     total energy              =    -584.10021984 Ry
     estimated scf accuracy    <       0.00000041 Ry

     total magnetization       =     1.00 Bohr mag/cell
     absolute magnetization    =     2.53 Bohr mag/cell

     iteration # 75     ecut=    58.80 Ry     beta= 0.30
     Davidson diagonalization with overlap
     ethr =  5.18E-10,  avg # of iterations =  6.5

     negative rho (up, down):  2.727E-02 2.418E-02

     total cpu time spent up to now is     1482.4 secs

     total energy              =    -584.10022750 Ry
     estimated scf accuracy    <       0.00000030 Ry

     total magnetization       =     1.00 Bohr mag/cell
     absolute magnetization    =     2.53 Bohr mag/cell

     iteration # 76     ecut=    58.80 Ry     beta= 0.30
     Davidson diagonalization with overlap
     ethr =  4.07E-10,  avg # of iterations =  5.5

     negative rho (up, down):  2.727E-02 2.417E-02

     total cpu time spent up to now is     1503.3 secs

     total energy              =    -584.10021598 Ry
     estimated scf accuracy    <       0.00000029 Ry

     total magnetization       =     1.00 Bohr mag/cell
     absolute magnetization    =     2.53 Bohr mag/cell

     iteration # 77     ecut=    58.80 Ry     beta= 0.30
     Davidson diagonalization with overlap
     ethr =  3.98E-10,  avg # of iterations =  7.0

     negative rho (up, down):  2.727E-02 2.417E-02

     total cpu time spent up to now is     1530.6 secs

     total energy              =    -584.10022750 Ry
     estimated scf accuracy    <       0.00000027 Ry

     total magnetization       =     1.00 Bohr mag/cell
     absolute magnetization    =     2.53 Bohr mag/cell

     iteration # 78     ecut=    58.80 Ry     beta= 0.30
     Davidson diagonalization with overlap
     ethr =  3.64E-10,  avg # of iterations =  7.0

     negative rho (up, down):  2.727E-02 2.417E-02

     total cpu time spent up to now is     1558.2 secs

     total energy              =    -584.10025455 Ry
     estimated scf accuracy    <       0.00000039 Ry

     total magnetization       =     1.00 Bohr mag/cell
     absolute magnetization    =     2.53 Bohr mag/cell

     iteration # 79     ecut=    58.80 Ry     beta= 0.30
     Davidson diagonalization with overlap
     ethr =  3.64E-10,  avg # of iterations =  6.5

     negative rho (up, down):  2.727E-02 2.417E-02

     total cpu time spent up to now is     1582.9 secs

     total energy              =    -584.10025841 Ry
     estimated scf accuracy    <       0.00000034 Ry

     total magnetization       =     1.00 Bohr mag/cell
     absolute magnetization    =     2.53 Bohr mag/cell

     iteration # 80     ecut=    58.80 Ry     beta= 0.30
     Davidson diagonalization with overlap
     ethr =  3.64E-10,  avg # of iterations =  6.5

     negative rho (up, down):  2.727E-02 2.417E-02

     total cpu time spent up to now is     1608.4 secs

     total energy              =    -584.10017689 Ry
     estimated scf accuracy    <       0.00000022 Ry

     total magnetization       =     1.00 Bohr mag/cell
     absolute magnetization    =     2.53 Bohr mag/cell

     iteration # 81     ecut=    58.80 Ry     beta= 0.30
     Davidson diagonalization with overlap
     ethr =  3.07E-10,  avg # of iterations =  7.5

     negative rho (up, down):  2.727E-02 2.417E-02

     total cpu time spent up to now is     1637.5 secs

     total energy              =    -584.10029302 Ry
     estimated scf accuracy    <       0.00000298 Ry

     total magnetization       =     1.00 Bohr mag/cell
     absolute magnetization    =     2.53 Bohr mag/cell

     iteration # 82     ecut=    58.80 Ry     beta= 0.30
     Davidson diagonalization with overlap
     ethr =  3.07E-10,  avg # of iterations =  6.0

     negative rho (up, down):  2.727E-02 2.417E-02

     total cpu time spent up to now is     1660.6 secs

     total energy              =    -584.10026686 Ry
     estimated scf accuracy    <       0.00000081 Ry

     total magnetization       =     1.00 Bohr mag/cell
     absolute magnetization    =     2.53 Bohr mag/cell

     iteration # 83     ecut=    58.80 Ry     beta= 0.30
     Davidson diagonalization with overlap
     ethr =  3.07E-10,  avg # of iterations =  7.0

     negative rho (up, down):  2.726E-02 2.417E-02

     total cpu time spent up to now is     1688.6 secs

     total energy              =    -584.10030739 Ry
     estimated scf accuracy    <       0.00000113 Ry

     total magnetization       =     1.00 Bohr mag/cell
     absolute magnetization    =     2.52 Bohr mag/cell

     iteration # 84     ecut=    58.80 Ry     beta= 0.30
     Davidson diagonalization with overlap
     ethr =  3.07E-10,  avg # of iterations =  6.5

     negative rho (up, down):  2.726E-02 2.418E-02

     total cpu time spent up to now is     1713.0 secs

     total energy              =    -584.10011238 Ry
     estimated scf accuracy    <       0.00000019 Ry

     total magnetization       =     1.00 Bohr mag/cell
     absolute magnetization    =     2.52 Bohr mag/cell

     iteration # 85     ecut=    58.80 Ry     beta= 0.30
     Davidson diagonalization with overlap
     ethr =  2.65E-10,  avg # of iterations =  8.0

     negative rho (up, down):  2.726E-02 2.418E-02

     total cpu time spent up to now is     1743.6 secs

     total energy              =    -584.10032992 Ry
     estimated scf accuracy    <       0.00001524 Ry

     total magnetization       =     1.00 Bohr mag/cell
     absolute magnetization    =     2.52 Bohr mag/cell

     iteration # 86     ecut=    58.80 Ry     beta= 0.30
     Davidson diagonalization with overlap
     ethr =  2.65E-10,  avg # of iterations =  6.5

     negative rho (up, down):  2.726E-02 2.418E-02

     total cpu time spent up to now is     1768.0 secs

     total energy              =    -584.10033356 Ry
     estimated scf accuracy    <       0.00000541 Ry

     total magnetization       =     1.00 Bohr mag/cell
     absolute magnetization    =     2.52 Bohr mag/cell

     iteration # 87     ecut=    58.80 Ry     beta= 0.30
     Davidson diagonalization with overlap
     ethr =  2.65E-10,  avg # of iterations =  6.0

     negative rho (up, down):  2.726E-02 2.418E-02

     total cpu time spent up to now is     1792.7 secs

     total energy              =    -584.10031651 Ry
     estimated scf accuracy    <       0.00000022 Ry

     total magnetization       =     1.00 Bohr mag/cell
     absolute magnetization    =     2.52 Bohr mag/cell

     iteration # 88     ecut=    58.80 Ry     beta= 0.30
     Davidson diagonalization with overlap
     ethr =  2.65E-10,  avg # of iterations =  7.0

     negative rho (up, down):  2.726E-02 2.418E-02

     total cpu time spent up to now is     1820.7 secs

     total energy              =    -584.10032915 Ry
     estimated scf accuracy    <       0.00000020 Ry

     total magnetization       =     1.00 Bohr mag/cell
     absolute magnetization    =     2.52 Bohr mag/cell

     iteration # 89     ecut=    58.80 Ry     beta= 0.30
     Davidson diagonalization with overlap
     ethr =  2.65E-10,  avg # of iterations =  7.0

     negative rho (up, down):  2.726E-02 2.418E-02

     total cpu time spent up to now is     1848.5 secs

     total energy              =    -584.10029289 Ry
     estimated scf accuracy    <       0.00000055 Ry

     total magnetization       =     1.00 Bohr mag/cell
     absolute magnetization    =     2.52 Bohr mag/cell

     iteration # 90     ecut=    58.80 Ry     beta= 0.30
     Davidson diagonalization with overlap
     ethr =  2.65E-10,  avg # of iterations =  7.5

     negative rho (up, down):  2.726E-02 2.419E-02

     total cpu time spent up to now is     1877.2 secs

     total energy              =    -584.10031333 Ry
     estimated scf accuracy    <       0.00000122 Ry

     total magnetization       =     1.00 Bohr mag/cell
     absolute magnetization    =     2.51 Bohr mag/cell

     iteration # 91     ecut=    58.80 Ry     beta= 0.30
     Davidson diagonalization with overlap
     ethr =  2.65E-10,  avg # of iterations =  7.5

     negative rho (up, down):  2.725E-02 2.418E-02

     total cpu time spent up to now is     1905.9 secs

     total energy              =    -584.10035878 Ry
     estimated scf accuracy    <       0.00000340 Ry

     total magnetization       =     1.00 Bohr mag/cell
     absolute magnetization    =     2.51 Bohr mag/cell

     iteration # 92     ecut=    58.80 Ry     beta= 0.30
     Davidson diagonalization with overlap
     ethr =  2.65E-10,  avg # of iterations =  7.0

     negative rho (up, down):  2.725E-02 2.419E-02

     total cpu time spent up to now is     1932.2 secs

     total energy              =    -584.10033794 Ry
     estimated scf accuracy    <       0.00000447 Ry

     total magnetization       =     1.00 Bohr mag/cell
     absolute magnetization    =     2.52 Bohr mag/cell

     iteration # 93     ecut=    58.80 Ry     beta= 0.30
     Davidson diagonalization with overlap
     ethr =  2.65E-10,  avg # of iterations =  7.0

     negative rho (up, down):  2.725E-02 2.419E-02

     total cpu time spent up to now is     1960.2 secs

     total energy              =    -584.10036245 Ry
     estimated scf accuracy    <       0.00000005 Ry

     total magnetization       =     1.00 Bohr mag/cell
     absolute magnetization    =     2.51 Bohr mag/cell

     iteration # 94     ecut=    58.80 Ry     beta= 0.30
     Davidson diagonalization with overlap
     ethr =  7.50E-11,  avg # of iterations =  7.5

     negative rho (up, down):  2.725E-02 2.419E-02

     total cpu time spent up to now is     1988.8 secs

     total energy              =    -584.10037605 Ry
     estimated scf accuracy    <       0.00000041 Ry

     total magnetization       =     1.00 Bohr mag/cell
     absolute magnetization    =     2.51 Bohr mag/cell

     iteration # 95     ecut=    58.80 Ry     beta= 0.30
     Davidson diagonalization with overlap
     ethr =  7.50E-11,  avg # of iterations =  6.5

     negative rho (up, down):  2.725E-02 2.419E-02

     total cpu time spent up to now is     2013.3 secs

     total energy              =    -584.10035948 Ry
     estimated scf accuracy    <       0.00000008 Ry

     total magnetization       =     1.00 Bohr mag/cell
     absolute magnetization    =     2.51 Bohr mag/cell

     iteration # 96     ecut=    58.80 Ry     beta= 0.30
     Davidson diagonalization with overlap
     ethr =  7.50E-11,  avg # of iterations =  7.5

     negative rho (up, down):  2.725E-02 2.419E-02

     total cpu time spent up to now is     2042.3 secs

     total energy              =    -584.10037113 Ry
     estimated scf accuracy    <       0.00000170 Ry

     total magnetization       =     1.00 Bohr mag/cell
     absolute magnetization    =     2.51 Bohr mag/cell

     iteration # 97     ecut=    58.80 Ry     beta= 0.30
     Davidson diagonalization with overlap
     ethr =  7.50E-11,  avg # of iterations =  7.0

     negative rho (up, down):  2.725E-02 2.419E-02

     total cpu time spent up to now is     2070.1 secs

     total energy              =    -584.10035861 Ry
     estimated scf accuracy    <       0.00000107 Ry

     total magnetization       =     1.00 Bohr mag/cell
     absolute magnetization    =     2.51 Bohr mag/cell

     iteration # 98     ecut=    58.80 Ry     beta= 0.30
     Davidson diagonalization with overlap
     ethr =  7.50E-11,  avg # of iterations =  7.5

     negative rho (up, down):  2.725E-02 2.420E-02

     total cpu time spent up to now is     2099.3 secs

     total energy              =    -584.10037212 Ry
     estimated scf accuracy    <       0.00000044 Ry

     total magnetization       =     1.00 Bohr mag/cell
     absolute magnetization    =     2.51 Bohr mag/cell

     iteration # 99     ecut=    58.80 Ry     beta= 0.30
     Davidson diagonalization with overlap
     ethr =  7.50E-11,  avg # of iterations =  7.5

     negative rho (up, down):  2.725E-02 2.420E-02

     total cpu time spent up to now is     2127.5 secs

     total energy              =    -584.10038397 Ry
     estimated scf accuracy    <       0.00000002 Ry

     total magnetization       =     1.00 Bohr mag/cell
     absolute magnetization    =     2.51 Bohr mag/cell

     iteration #100     ecut=    58.80 Ry     beta= 0.30
     Davidson diagonalization with overlap
     ethr =  3.07E-11,  avg # of iterations =  6.0

     negative rho (up, down):  2.725E-02 2.420E-02

     total cpu time spent up to now is     2150.6 secs

     total energy              =    -584.10037505 Ry
     estimated scf accuracy    <       0.00000049 Ry

     total magnetization       =     1.00 Bohr mag/cell
     absolute magnetization    =     2.51 Bohr mag/cell

     iteration #101     ecut=    58.80 Ry     beta= 0.30
     Davidson diagonalization with overlap
     ethr =  3.07E-11,  avg # of iterations =  8.0

     negative rho (up, down):  2.725E-02 2.420E-02

     total cpu time spent up to now is     2180.3 secs

     total energy              =    -584.10038454 Ry
     estimated scf accuracy    <       0.00000004 Ry

     total magnetization       =     1.00 Bohr mag/cell
     absolute magnetization    =     2.51 Bohr mag/cell

     iteration #102     ecut=    58.80 Ry     beta= 0.30
     Davidson diagonalization with overlap
     ethr =  3.07E-11,  avg # of iterations =  7.0

     negative rho (up, down):  2.725E-02 2.420E-02

     total cpu time spent up to now is     2207.8 secs

     total energy              =    -584.10038685 Ry
     estimated scf accuracy    <       0.00000005 Ry

     total magnetization       =     1.00 Bohr mag/cell
     absolute magnetization    =     2.51 Bohr mag/cell

     iteration #103     ecut=    58.80 Ry     beta= 0.30
     Davidson diagonalization with overlap
     ethr =  3.07E-11,  avg # of iterations =  6.5

     negative rho (up, down):  2.724E-02 2.421E-02

     total cpu time spent up to now is     2232.7 secs

     total energy              =    -584.10037226 Ry
     estimated scf accuracy    <       0.00000003 Ry

     total magnetization       =     1.00 Bohr mag/cell
     absolute magnetization    =     2.51 Bohr mag/cell

     iteration #104     ecut=    58.80 Ry     beta= 0.30
     Davidson diagonalization with overlap
     ethr =  3.07E-11,  avg # of iterations =  8.0

     negative rho (up, down):  2.724E-02 2.421E-02

     total cpu time spent up to now is     2262.8 secs

     total energy              =    -584.10038919 Ry
     estimated scf accuracy    <       0.00000018 Ry

     total magnetization       =     1.00 Bohr mag/cell
     absolute magnetization    =     2.51 Bohr mag/cell

     iteration #105     ecut=    58.80 Ry     beta= 0.30
     Davidson diagonalization with overlap
     ethr =  3.07E-11,  avg # of iterations =  6.5

     negative rho (up, down):  2.724E-02 2.421E-02

     total cpu time spent up to now is     2287.8 secs

     total energy              =    -584.10035979 Ry
     estimated scf accuracy    <       0.00000093 Ry

     total magnetization       =     1.00 Bohr mag/cell
     absolute magnetization    =     2.51 Bohr mag/cell

     iteration #106     ecut=    58.80 Ry     beta= 0.30
     Davidson diagonalization with overlap
     ethr =  3.07E-11,  avg # of iterations =  8.0

     negative rho (up, down):  2.724E-02 2.421E-02

     total cpu time spent up to now is     2318.8 secs

     total energy              =    -584.10038163 Ry
     estimated scf accuracy    <       0.00000034 Ry

     total magnetization       =     1.00 Bohr mag/cell
     absolute magnetization    =     2.50 Bohr mag/cell

     iteration #107     ecut=    58.80 Ry     beta= 0.30
     Davidson diagonalization with overlap
     ethr =  3.07E-11,  avg # of iterations =  8.0

     negative rho (up, down):  2.724E-02 2.422E-02

     total cpu time spent up to now is     2348.4 secs

     total energy              =    -584.10036138 Ry
     estimated scf accuracy    <       0.00000004 Ry

     total magnetization       =     1.00 Bohr mag/cell
     absolute magnetization    =     2.50 Bohr mag/cell

     iteration #108     ecut=    58.80 Ry     beta= 0.30
     Davidson diagonalization with overlap
     ethr =  3.07E-11,  avg # of iterations =  8.0

     negative rho (up, down):  2.724E-02 2.422E-02

     total cpu time spent up to now is     2379.2 secs

     total energy              =    -584.10039206 Ry
     estimated scf accuracy    <       0.00000030 Ry

     total magnetization       =     1.00 Bohr mag/cell
     absolute magnetization    =     2.50 Bohr mag/cell

     iteration #109     ecut=    58.80 Ry     beta= 0.30
     Davidson diagonalization with overlap
     ethr =  3.07E-11,  avg # of iterations =  7.0

     negative rho (up, down):  2.724E-02 2.423E-02

     total cpu time spent up to now is     2406.9 secs

     total energy              =    -584.10038729 Ry
     estimated scf accuracy    <       0.00000004 Ry

     total magnetization       =     1.00 Bohr mag/cell
     absolute magnetization    =     2.50 Bohr mag/cell

     iteration #110     ecut=    58.80 Ry     beta= 0.30
     Davidson diagonalization with overlap
     ethr =  3.07E-11,  avg # of iterations =  7.5

     negative rho (up, down):  2.724E-02 2.423E-02

     total cpu time spent up to now is     2435.8 secs

     total energy              =    -584.10039513 Ry
     estimated scf accuracy    <       0.00000004 Ry

     total magnetization       =     1.00 Bohr mag/cell
     absolute magnetization    =     2.50 Bohr mag/cell

     iteration #111     ecut=    58.80 Ry     beta= 0.30
     Davidson diagonalization with overlap
     ethr =  3.07E-11,  avg # of iterations =  6.5

     negative rho (up, down):  2.724E-02 2.423E-02

     total cpu time spent up to now is     2460.4 secs

     total energy              =    -584.10039509 Ry
     estimated scf accuracy    <       0.00000004 Ry

     total magnetization       =     1.00 Bohr mag/cell
     absolute magnetization    =     2.50 Bohr mag/cell

     iteration #112     ecut=    58.80 Ry     beta= 0.30
     Davidson diagonalization with overlap
     ethr =  3.07E-11,  avg # of iterations =  7.0

     negative rho (up, down):  2.724E-02 2.423E-02

     total cpu time spent up to now is     2486.4 secs

     total energy              =    -584.10039565 Ry
     estimated scf accuracy    <          2.4E-09 Ry

     total magnetization       =     1.00 Bohr mag/cell
     absolute magnetization    =     2.50 Bohr mag/cell

     iteration #113     ecut=    58.80 Ry     beta= 0.30
     Davidson diagonalization with overlap
     ethr =  3.27E-12,  avg # of iterations =  7.0

     negative rho (up, down):  2.724E-02 2.423E-02

     Magnetic moment per site  (integrated on atomic sphere of radius R)
     atom   1 (R=0.029)  charge= 12.9867  magn=  1.3353
     atom   2 (R=0.014)  charge=  1.9381  magn= -0.0125
     atom   3 (R=0.014)  charge=  1.9445  magn= -0.0215
     atom   4 (R=0.014)  charge=  1.9385  magn= -0.0279
     atom   5 (R=0.014)  charge=  0.3861  magn= -0.0029
     atom   6 (R=0.016)  charge=  0.8321  magn= -0.0077
     atom   7 (R=0.014)  charge=  0.3854  magn=  0.0032
     atom   8 (R=0.016)  charge=  0.8319  magn= -0.0047
     atom   9 (R=0.014)  charge=  0.3842  magn= -0.0010
     atom  10 (R=0.016)  charge=  0.8342  magn= -0.0099
     atom  11 (R=0.014)  charge=  0.3865  magn= -0.0057
     atom  12 (R=0.014)  charge=  0.3745  magn= -0.0144
     atom  13 (R=0.016)  charge=  0.8675  magn= -0.0075
     atom  14 (R=0.014)  charge=  0.3724  magn= -0.0112
     atom  15 (R=0.014)  charge=  0.3727  magn= -0.0003
     atom  16 (R=0.014)  charge=  0.3767  magn= -0.0054
     atom  17 (R=0.014)  charge=  0.3842  magn= -0.0077
     atom  18 (R=0.016)  charge=  0.8662  magn= -0.0115
     atom  19 (R=0.014)  charge=  0.3740  magn= -0.0152
     atom  20 (R=0.014)  charge=  0.3723  magn= -0.0114
     atom  21 (R=0.014)  charge=  0.3750  magn= -0.0074
     atom  22 (R=0.014)  charge=  0.3732  magn= -0.0040
     atom  23 (R=0.014)  charge=  0.3840  magn= -0.0094
     atom  24 (R=0.014)  charge=  0.3733  magn= -0.0201
     atom  25 (R=0.016)  charge=  0.8656  magn= -0.0083
     atom  26 (R=0.014)  charge=  0.3753  magn= -0.0108
     atom  27 (R=0.014)  charge=  0.3728  magn= -0.0004
     atom  28 (R=0.014)  charge=  0.3730  magn= -0.0094

     total cpu time spent up to now is     2513.6 secs

     End of self-consistent calculation

 ------ SPIN UP ------------


          k = 0.0000 0.0000 0.0000 (****** PWs)   bands (ev):

  -102.2120 -68.6937 -68.5298 -67.6201 -35.2162 -35.1420 -35.1004 -26.1574
   -26.1243 -26.0710 -23.3046 -23.2989 -23.1699 -21.3969 -21.0468 -20.9571
   -19.9984 -19.8960 -19.8599 -19.1690 -19.0376 -18.8765 -17.1397 -16.9128
   -16.7181 -16.3803 -16.2030 -16.0925 -15.8158 -15.7537 -15.7172 -15.6617
   -15.4333 -15.3826 -14.8606 -14.7079 -14.6000

 ------ SPIN DOWN ----------


          k = 0.0000 0.0000 0.0000 (****** PWs)   bands (ev):

  -100.4648 -66.9453 -66.8567 -65.9030 -35.2985 -35.2101 -35.1425 -26.2162
   -26.1951 -26.1110 -23.3510 -23.3441 -23.2074 -21.3380 -20.9990 -20.9344
   -20.0520 -19.9750 -19.8735 -19.2665 -19.1364 -18.9674 -16.9673 -16.8683
   -16.7280 -16.3429 -16.2544 -16.0454 -15.7685 -15.7521 -15.6147 -14.9243
   -14.8774 -14.7641 -14.6122 -14.5048 -13.3455

     highest occupied, lowest unoccupied level (ev):   -14.5048  -13.3455

!    total energy              =    -584.10039589 Ry
     total all-electron energy =      -584.100396 Ry
     estimated scf accuracy    <          6.6E-10 Ry

     The total energy is the sum of the following terms:
     one-electron contribution =   -1804.68717293 Ry
     hartree contribution      =     864.83980023 Ry
     xc contribution           =     -82.64000588 Ry
     ewald contribution        =     572.81919339 Ry
     one-center paw contrib.   =    -134.43221070 Ry

     total magnetization       =     1.00 Bohr mag/cell
     absolute magnetization    =     2.50 Bohr mag/cell

     convergence has been achieved in 113 iterations

     negative rho (up, down):  2.724E-02 2.423E-02

     Forces acting on atoms (cartesian axes, Ry/au):

     atom    1 type  1   force =     0.00840062    0.01029488    0.02329087
     atom    2 type  2   force =     0.02289811   -0.03404214    0.00654596
     atom    3 type  2   force =     0.00758297    0.00619970   -0.04308905
     atom    4 type  2   force =    -0.03470123    0.02476597    0.01034400
     atom    5 type  3   force =    -0.02087753   -0.00458882   -0.01422867
     atom    6 type  4   force =     0.02183486    0.01027345    0.00804124
     atom    7 type  3   force =     0.00390775    0.01603168    0.01893680
     atom    8 type  4   force =     0.00978312    0.01914345    0.02027083
     atom    9 type  3   force =    -0.00333354   -0.01607292   -0.01956631
     atom   10 type  4   force =     0.00172989   -0.03601671   -0.00445657
     atom   11 type  3   force =     0.00660458   -0.00194420    0.00027110
     atom   12 type  3   force =    -0.00360041   -0.00212492    0.00265092
     atom   13 type  4   force =    -0.00143543   -0.00994958   -0.02882768
     atom   14 type  3   force =     0.00203890    0.00013364    0.00278664
     atom   15 type  3   force =    -0.00129317    0.00902628    0.00656241
     atom   16 type  3   force =    -0.00628767    0.00328887    0.00293974
     atom   17 type  3   force =    -0.00339341    0.00161673   -0.00516113
     atom   18 type  4   force =    -0.01236403    0.03019856    0.00913568
     atom   19 type  3   force =     0.00339020    0.00235355   -0.00025496
     atom   20 type  3   force =    -0.00168386   -0.00412511   -0.00122897
     atom   21 type  3   force =     0.00488838   -0.00343662    0.00312309
     atom   22 type  3   force =    -0.00126959   -0.01183453    0.00110715
     atom   23 type  3   force =    -0.00107128   -0.00029491    0.00649160
     atom   24 type  3   force =    -0.00348352    0.00508430   -0.00298127
     atom   25 type  4   force =    -0.00997950   -0.01771624   -0.01105729
     atom   26 type  3   force =     0.00496440   -0.00178409    0.00535846
     atom   27 type  3   force =     0.00770226    0.00064398    0.00568044
     atom   28 type  3   force =    -0.00095185    0.00487577   -0.00268504

     Total force =     0.120534     Total SCF correction =     0.000045


     Computing stress (Cartesian axis) and pressure


     negative rho (up, down):  2.724E-02 2.423E-02
          total   stress  (Ry/bohr**3)                   (kbar)     P=       -0.07
  -0.00000066   0.00000058   0.00000056           -0.10        0.09        0.08
   0.00000058  -0.00000046   0.00000048            0.09       -0.07        0.07
   0.00000056   0.00000048  -0.00000037            0.08        0.07       -0.05


     Writing all to output data dir ./out/Fe_EtOH_3_LowSpin.save/ :
     XML data file, charge density, pseudopotentials, collected wavefunctions

     init_run     :     25.44s CPU     24.24s WALL (       1 calls)
     electrons    :   2775.30s CPU   2489.82s WALL (       1 calls)
     forces       :      7.21s CPU      6.15s WALL (       1 calls)
     stress       :     33.98s CPU     33.12s WALL (       1 calls)

     Called by init_run:
     wfcinit      :     17.33s CPU     16.00s WALL (       1 calls)
     potinit      :      1.77s CPU      1.89s WALL (       1 calls)
     hinit0       :      1.15s CPU      1.19s WALL (       1 calls)

     Called by electrons:
     c_bands      :   1353.90s CPU   1188.34s WALL (     113 calls)
     sum_band     :    930.44s CPU    825.42s WALL (     113 calls)
     v_of_rho     :    113.60s CPU    114.25s WALL (     114 calls)
     newd         :    246.08s CPU    229.65s WALL (     114 calls)
     PAW_pot      :     75.52s CPU     75.80s WALL (     114 calls)
     mix_rho      :     55.43s CPU     55.40s WALL (     113 calls)

     Called by c_bands:
     init_us_2    :     16.54s CPU     16.69s WALL (     458 calls)
     init_us_2:cp :     16.54s CPU     16.69s WALL (     458 calls)
     cegterg      :   1319.76s CPU   1154.60s WALL (     226 calls)

     Called by *egterg:
     cdiaghg      :      8.81s CPU      4.54s WALL (    1294 calls)
     h_psi        :   1088.12s CPU   1030.11s WALL (    1296 calls)
     s_psi        :     65.65s CPU     33.49s WALL (    1296 calls)
     g_psi        :      5.68s CPU      3.31s WALL (    1068 calls)

     Called by h_psi:
     h_psi:calbec :     70.57s CPU     37.37s WALL (    1296 calls)
     vloc_psi     :    945.37s CPU    950.65s WALL (    1296 calls)
     add_vuspsi   :     66.57s CPU     33.68s WALL (    1296 calls)

     General routines
     calbec       :     89.15s CPU     47.15s WALL (    1532 calls)
     fft          :     90.22s CPU     90.99s WALL (    2436 calls)
     ffts         :      6.90s CPU      7.02s WALL (     226 calls)
     fftw         :    876.60s CPU    882.46s WALL (   60896 calls)

     Parallel routines

     PWSCF        :  47m23.63s CPU  42m37.90s WALL


   This run was terminated on:   5:55:49  11Mar2026            

=------------------------------------------------------------------------------=
   JOB DONE.
=------------------------------------------------------------------------------=
