
     Program PWSCF v.7.3 starts on 11Mar2026 at  5:55:49 

     This program is part of the open-source Quantum ESPRESSO suite
     for quantum simulation of materials; please cite
         "P. Giannozzi et al., J. Phys.:Condens. Matter 21 395502 (2009);
         "P. Giannozzi et al., J. Phys.:Condens. Matter 29 465901 (2017);
         "P. Giannozzi et al., J. Chem. Phys. 152 154105 (2020);
          URL http://www.quantum-espresso.org", 
     in publications or presentations arising from this work. More details at
     http://www.quantum-espresso.org/quote

     Parallel version (MPI), running on    24 processors

     MPI processes distributed on     1 nodes
     89283 MiB available memory on the printing compute node when the environment starts

     Reading input from FeH2O6_LowSpin.in

     Current dimensions of program PWSCF are:
     Max number of different atomic species (ntypx) = 10
     Max number of k-points (npk) =  40000
     Max angular momentum in pseudopotentials (lmaxx) =  4
read_pp_mesh; mismatch in mesh size, discarding the one in header
read_pp_mesh; mismatch in mesh size, discarding the one in header
read_pp_mesh; mismatch in mesh size, discarding the one in header
     file Fe.GGA-PBE-paw.UPF: wavefunction(s)  4S 3P 0P 3D 0D renormalized
     file O.GGA-PBE-paw.UPF: wavefunction(s)  0S 2P 0P renormalized
     file H.GGA-PBE-paw.UPF: wavefunction(s)  0S 0P renormalized
     Message from routine setup:
     the system is metallic, specify occupations

     R & G space division:  proc/nbgrp/npool/nimage =      24
     Subspace diagonalization in iterative solution of the eigenvalue problem:
     a serial algorithm will be used


     Parallelization info
     --------------------
     sticks:   dense  smooth     PW     G-vecs:    dense   smooth      PW
     Min        1647    1647    411               248105   248105   31013
     Max        1648    1648    412               248108   248108   31016
     Sum       39535   39535   9887              5954535  5954535  744371

     Using Slab Decomposition



     bravais-lattice index     =            0
     lattice parameter (alat)  =      45.8499  a.u.
     unit-cell volume          =   97761.0916 (a.u.)^3
     number of atoms/cell      =           19
     number of atomic types    =            3
     number of electrons       =        61.00 (up:  31.00, down:  30.00)
     number of Kohn-Sham states=           31
     kinetic-energy cutoff     =      58.8000  Ry
     charge density cutoff     =     235.2000  Ry
     scf convergence threshold =      1.0E-09
     mixing beta               =       0.3000
     number of iterations used =            8  plain     mixing
     Exchange-correlation= SLA PW PBX PBC
                           (   1   4   3   4   0   0   0)

     celldm(1)=  45.849920  celldm(2)=   0.000000  celldm(3)=   0.000000
     celldm(4)=   0.000000  celldm(5)=   0.000000  celldm(6)=   0.000000

     crystal axes: (cart. coord. in units of alat)
               a(1) = (   1.000000   0.000000   0.000000 )  
               a(2) = (   0.000000   1.004765   0.000000 )  
               a(3) = (   0.000000   0.000000   1.009452 )  

     reciprocal axes: (cart. coord. in units 2 pi/alat)
               b(1) = (  1.000000  0.000000  0.000000 )  
               b(2) = (  0.000000  0.995258  0.000000 )  
               b(3) = (  0.000000  0.000000  0.990636 )  


     PseudoPot. # 1 for Fe read from file:
     /storage/nanosim/JTH_PBE/Fe.GGA-PBE-paw.UPF
     MD5 check sum: 6f5baa53d711f01c620cb678d0da43bc
     Pseudo is Projector augmented-wave + core cor, Zval = 16.0
     Generated using ATOMPAW code
     Shape of augmentation charge: SINC**2
     Using radial grid of 2342 points,  6 beta functions with: 
                l(1) =   0
                l(2) =   0
                l(3) =   1
                l(4) =   1
                l(5) =   2
                l(6) =   2
     Q(r) pseudized with 0 coefficients 


     PseudoPot. # 2 for O  read from file:
     /storage/nanosim/JTH_PBE/O.GGA-PBE-paw.UPF
     MD5 check sum: 736cbc7a9d52a6679d85906802ae4ba1
     Pseudo is Projector augmented-wave + core cor, Zval =  6.0
     Generated using ATOMPAW code
     Shape of augmentation charge: SINC**2
     Using radial grid of 2342 points,  4 beta functions with: 
                l(1) =   0
                l(2) =   0
                l(3) =   1
                l(4) =   1
     Q(r) pseudized with 0 coefficients 


     PseudoPot. # 3 for H  read from file:
     /storage/nanosim/JTH_PBE/H.GGA-PBE-paw.UPF
     MD5 check sum: 038daa4ccd301a845c8516faee96a7c5
     Pseudo is Projector augmented-wave + core cor, Zval =  1.0
     Generated using ATOMPAW code
     Shape of augmentation charge: SINC**2
     Using radial grid of 2342 points,  3 beta functions with: 
                l(1) =   0
                l(2) =   0
                l(3) =   1
     Q(r) pseudized with 0 coefficients 


     atomic species   valence    mass     pseudopotential
     Fe               16.00    55.84500     Fe( 1.00)
     O                 6.00    16.00000     O ( 1.00)
     H                 1.00     1.00800     H ( 1.00)

     Starting magnetic structure 
     atomic species   magnetization
     Fe              0.062
     O               0.000
     H               0.000

     No symmetry found



   Cartesian axes

     site n.     atom                  positions (alat units)
         1        Fe     tau(   1) = (   0.5000018   0.5023931   0.5047251  )
         2        O      tau(   2) = (   0.4472713   0.4935366   0.4455214  )
         3        O      tau(   3) = (   0.5526865   0.5111600   0.5639812  )
         4        O      tau(   4) = (   0.5235609   0.5731713   0.4758525  )
         5        O      tau(   5) = (   0.4763772   0.4316953   0.5336711  )
         6        O      tau(   6) = (   0.4436749   0.5408827   0.5461261  )
         7        O      tau(   7) = (   0.5562080   0.4638772   0.4631468  )
         8        H      tau(   8) = (   0.4425077   0.5805631   0.5517418  )
         9        H      tau(   9) = (   0.5073087   0.5918007   0.4442868  )
        10        H      tau(  10) = (   0.4121547   0.5127138   0.4429352  )
        11        H      tau(  11) = (   0.4431777   0.4121547   0.5225774  )
        12        H      tau(  12) = (   0.5471184   0.5327552   0.5972976  )
        13        H      tau(  13) = (   0.5840493   0.4810958   0.4399990  )
        14        H      tau(  14) = (   0.4926487   0.4129482   0.5651594  )
        15        H      tau(  15) = (   0.4160071   0.5235430   0.5693927  )
        16        H      tau(  16) = (   0.4529941   0.4720591   0.4121547  )
        17        H      tau(  17) = (   0.5575230   0.4241568   0.4578598  )
        18        H      tau(  18) = (   0.5568899   0.5926102   0.4867309  )
        19        H      tau(  19) = (   0.5878453   0.4920468   0.5664601  )

     number of k points=     1
                       cart. coord. in units 2pi/alat
        k(    1) = (   0.0000000   0.0000000   0.0000000), wk =   1.0000000

     Dense  grid:  5954535 G-vectors     FFT dimensions: ( 225, 225, 225)

     Estimated max dynamical RAM per process >       1.16 GB

     Estimated total dynamical RAM >      27.94 GB
     Generating pointlists ...
     new r_m :   0.0329 (alat units)  1.5088 (a.u.) for type    1
     new r_m :   0.0165 (alat units)  0.7582 (a.u.) for type    2
     new r_m :   0.0165 (alat units)  0.7582 (a.u.) for type    3

     Initial potential from superposition of free atoms

     starting charge      63.9992, renormalised to      61.0000

     negative rho (up, down):  2.092E-02 1.940E-02
     Starting wfcs are  126 randomized atomic wfcs
     Checking if some PAW data can be deallocated... 

     total cpu time spent up to now is       11.6 secs

     Self-consistent Calculation

     iteration #  1     ecut=    58.80 Ry     beta= 0.30
     Davidson diagonalization with overlap
     ethr =  1.00E-02,  avg # of iterations =  2.0

     negative rho (up, down):  2.340E-02 2.184E-02

     total cpu time spent up to now is       22.3 secs

     total energy              =    -590.66594426 Ry
     estimated scf accuracy    <       8.42935588 Ry

     total magnetization       =     1.00 Bohr mag/cell
     absolute magnetization    =     1.17 Bohr mag/cell

     iteration #  2     ecut=    58.80 Ry     beta= 0.30
     Davidson diagonalization with overlap
     ethr =  1.00E-02,  avg # of iterations =  3.0

     negative rho (up, down):  2.425E-02 2.264E-02

     total cpu time spent up to now is       33.1 secs

     total energy              =    -591.40679647 Ry
     estimated scf accuracy    <       1.54219759 Ry

     total magnetization       =     1.00 Bohr mag/cell
     absolute magnetization    =     1.12 Bohr mag/cell

     iteration #  3     ecut=    58.80 Ry     beta= 0.30
     Davidson diagonalization with overlap
     ethr =  2.53E-03,  avg # of iterations =  3.0

     negative rho (up, down):  2.508E-02 2.335E-02

     total cpu time spent up to now is       43.5 secs

     total energy              =    -591.60316928 Ry
     estimated scf accuracy    <       0.49557354 Ry

     total magnetization       =     1.00 Bohr mag/cell
     absolute magnetization    =     1.10 Bohr mag/cell

     iteration #  4     ecut=    58.80 Ry     beta= 0.30
     Davidson diagonalization with overlap
     ethr =  8.12E-04,  avg # of iterations =  3.5

     negative rho (up, down):  2.599E-02 2.417E-02

     total cpu time spent up to now is       53.5 secs

     total energy              =    -591.66499606 Ry
     estimated scf accuracy    <       0.08644833 Ry

     total magnetization       =     1.00 Bohr mag/cell
     absolute magnetization    =     1.11 Bohr mag/cell

     iteration #  5     ecut=    58.80 Ry     beta= 0.30
     Davidson diagonalization with overlap
     ethr =  1.42E-04,  avg # of iterations =  3.0

     negative rho (up, down):  2.746E-02 2.556E-02

     total cpu time spent up to now is       63.6 secs

     total energy              =    -591.67127516 Ry
     estimated scf accuracy    <       0.02253778 Ry

     total magnetization       =     1.00 Bohr mag/cell
     absolute magnetization    =     1.10 Bohr mag/cell

     iteration #  6     ecut=    58.80 Ry     beta= 0.30
     Davidson diagonalization with overlap
     ethr =  3.69E-05,  avg # of iterations =  2.0

     negative rho (up, down):  2.790E-02 2.598E-02

     total cpu time spent up to now is       73.3 secs

     total energy              =    -591.67220756 Ry
     estimated scf accuracy    <       0.00186185 Ry

     total magnetization       =     1.00 Bohr mag/cell
     absolute magnetization    =     1.10 Bohr mag/cell

     iteration #  7     ecut=    58.80 Ry     beta= 0.30
     Davidson diagonalization with overlap
     ethr =  3.05E-06,  avg # of iterations =  4.5

     negative rho (up, down):  2.796E-02 2.605E-02

     total cpu time spent up to now is       84.7 secs

     total energy              =    -591.67332690 Ry
     estimated scf accuracy    <       0.00089074 Ry

     total magnetization       =     1.00 Bohr mag/cell
     absolute magnetization    =     1.11 Bohr mag/cell

     iteration #  8     ecut=    58.80 Ry     beta= 0.30
     Davidson diagonalization with overlap
     ethr =  1.46E-06,  avg # of iterations =  1.0

     negative rho (up, down):  2.807E-02 2.617E-02

     total cpu time spent up to now is       94.2 secs

     total energy              =    -591.67325972 Ry
     estimated scf accuracy    <       0.00045953 Ry

     total magnetization       =     1.00 Bohr mag/cell
     absolute magnetization    =     1.11 Bohr mag/cell

     iteration #  9     ecut=    58.80 Ry     beta= 0.30
     Davidson diagonalization with overlap
     ethr =  7.53E-07,  avg # of iterations =  4.5

     negative rho (up, down):  2.807E-02 2.617E-02

     total cpu time spent up to now is      105.2 secs

     total energy              =    -591.67356226 Ry
     estimated scf accuracy    <       0.00020528 Ry

     total magnetization       =     1.00 Bohr mag/cell
     absolute magnetization    =     1.12 Bohr mag/cell

     iteration # 10     ecut=    58.80 Ry     beta= 0.30
     Davidson diagonalization with overlap
     ethr =  3.37E-07,  avg # of iterations =  1.0

     negative rho (up, down):  2.806E-02 2.616E-02

     total cpu time spent up to now is      114.7 secs

     total energy              =    -591.67355998 Ry
     estimated scf accuracy    <       0.00019775 Ry

     total magnetization       =     1.00 Bohr mag/cell
     absolute magnetization    =     1.12 Bohr mag/cell

     iteration # 11     ecut=    58.80 Ry     beta= 0.30
     Davidson diagonalization with overlap
     ethr =  3.24E-07,  avg # of iterations =  1.0

     negative rho (up, down):  2.807E-02 2.617E-02

     total cpu time spent up to now is      124.3 secs

     total energy              =    -591.67356600 Ry
     estimated scf accuracy    <       0.00013593 Ry

     total magnetization       =     1.00 Bohr mag/cell
     absolute magnetization    =     1.12 Bohr mag/cell

     iteration # 12     ecut=    58.80 Ry     beta= 0.30
     Davidson diagonalization with overlap
     ethr =  2.23E-07,  avg # of iterations =  4.5

     negative rho (up, down):  2.807E-02 2.617E-02

     total cpu time spent up to now is      135.0 secs

     total energy              =    -591.67360520 Ry
     estimated scf accuracy    <       0.00004292 Ry

     total magnetization       =     1.00 Bohr mag/cell
     absolute magnetization    =     1.12 Bohr mag/cell

     iteration # 13     ecut=    58.80 Ry     beta= 0.30
     Davidson diagonalization with overlap
     ethr =  7.04E-08,  avg # of iterations =  4.5

     negative rho (up, down):  2.807E-02 2.618E-02

     total cpu time spent up to now is      145.4 secs

     total energy              =    -591.67368803 Ry
     estimated scf accuracy    <       0.00002170 Ry

     total magnetization       =     1.00 Bohr mag/cell
     absolute magnetization    =     1.12 Bohr mag/cell

     iteration # 14     ecut=    58.80 Ry     beta= 0.30
     Davidson diagonalization with overlap
     ethr =  3.56E-08,  avg # of iterations =  5.0

     negative rho (up, down):  2.806E-02 2.618E-02

     total cpu time spent up to now is      156.5 secs

     total energy              =    -591.67375383 Ry
     estimated scf accuracy    <       0.00004993 Ry

     total magnetization       =     1.00 Bohr mag/cell
     absolute magnetization    =     1.12 Bohr mag/cell

     iteration # 15     ecut=    58.80 Ry     beta= 0.30
     Davidson diagonalization with overlap
     ethr =  3.56E-08,  avg # of iterations =  5.0

     negative rho (up, down):  2.807E-02 2.619E-02

     total cpu time spent up to now is      167.4 secs

     total energy              =    -591.67380064 Ry
     estimated scf accuracy    <       0.00001184 Ry

     total magnetization       =     1.00 Bohr mag/cell
     absolute magnetization    =     1.13 Bohr mag/cell

     iteration # 16     ecut=    58.80 Ry     beta= 0.30
     Davidson diagonalization with overlap
     ethr =  1.94E-08,  avg # of iterations =  5.0

     negative rho (up, down):  2.807E-02 2.619E-02

     total cpu time spent up to now is      177.8 secs

     total energy              =    -591.67382611 Ry
     estimated scf accuracy    <       0.00001789 Ry

     total magnetization       =     1.00 Bohr mag/cell
     absolute magnetization    =     1.13 Bohr mag/cell

     iteration # 17     ecut=    58.80 Ry     beta= 0.30
     Davidson diagonalization with overlap
     ethr =  1.94E-08,  avg # of iterations =  5.0

     negative rho (up, down):  2.805E-02 2.619E-02

     total cpu time spent up to now is      188.3 secs

     total energy              =    -591.67375361 Ry
     estimated scf accuracy    <       0.00002992 Ry

     total magnetization       =     1.00 Bohr mag/cell
     absolute magnetization    =     1.13 Bohr mag/cell

     iteration # 18     ecut=    58.80 Ry     beta= 0.30
     Davidson diagonalization with overlap
     ethr =  1.94E-08,  avg # of iterations =  5.5

     negative rho (up, down):  2.806E-02 2.620E-02

     total cpu time spent up to now is      200.6 secs

     total energy              =    -591.67387899 Ry
     estimated scf accuracy    <       0.00000221 Ry

     total magnetization       =     1.00 Bohr mag/cell
     absolute magnetization    =     1.14 Bohr mag/cell

     iteration # 19     ecut=    58.80 Ry     beta= 0.30
     Davidson diagonalization with overlap
     ethr =  3.63E-09,  avg # of iterations =  4.5

     negative rho (up, down):  2.806E-02 2.620E-02

     total cpu time spent up to now is      210.8 secs

     total energy              =    -591.67387940 Ry
     estimated scf accuracy    <       0.00000033 Ry

     total magnetization       =     1.00 Bohr mag/cell
     absolute magnetization    =     1.14 Bohr mag/cell

     iteration # 20     ecut=    58.80 Ry     beta= 0.30
     Davidson diagonalization with overlap
     ethr =  5.38E-10,  avg # of iterations =  4.0

     negative rho (up, down):  2.806E-02 2.620E-02

     total cpu time spent up to now is      221.7 secs

     total energy              =    -591.67387976 Ry
     estimated scf accuracy    <       0.00000005 Ry

     total magnetization       =     1.00 Bohr mag/cell
     absolute magnetization    =     1.14 Bohr mag/cell

     iteration # 21     ecut=    58.80 Ry     beta= 0.30
     Davidson diagonalization with overlap
     ethr =  8.84E-11,  avg # of iterations =  6.0

     negative rho (up, down):  2.806E-02 2.620E-02

     total cpu time spent up to now is      232.8 secs

     total energy              =    -591.67388006 Ry
     estimated scf accuracy    <       0.00000002 Ry

     total magnetization       =     1.00 Bohr mag/cell
     absolute magnetization    =     1.14 Bohr mag/cell

     iteration # 22     ecut=    58.80 Ry     beta= 0.30
     Davidson diagonalization with overlap
     ethr =  3.48E-11,  avg # of iterations =  6.0

     negative rho (up, down):  2.806E-02 2.620E-02

     total cpu time spent up to now is      244.0 secs

     total energy              =    -591.67388024 Ry
     estimated scf accuracy    <       0.00000001 Ry

     total magnetization       =     1.00 Bohr mag/cell
     absolute magnetization    =     1.14 Bohr mag/cell

     iteration # 23     ecut=    58.80 Ry     beta= 0.30
     Davidson diagonalization with overlap
     ethr =  2.14E-11,  avg # of iterations =  6.0

     negative rho (up, down):  2.806E-02 2.620E-02

     total cpu time spent up to now is      255.6 secs

     total energy              =    -591.67388037 Ry
     estimated scf accuracy    <          6.2E-09 Ry

     total magnetization       =     1.00 Bohr mag/cell
     absolute magnetization    =     1.14 Bohr mag/cell

     iteration # 24     ecut=    58.80 Ry     beta= 0.30
     Davidson diagonalization with overlap
     ethr =  1.01E-11,  avg # of iterations =  6.0

     negative rho (up, down):  2.806E-02 2.620E-02

     total cpu time spent up to now is      267.3 secs

     total energy              =    -591.67388045 Ry
     estimated scf accuracy    <          4.0E-09 Ry

     total magnetization       =     1.00 Bohr mag/cell
     absolute magnetization    =     1.14 Bohr mag/cell

     iteration # 25     ecut=    58.80 Ry     beta= 0.30
     Davidson diagonalization with overlap
     ethr =  6.52E-12,  avg # of iterations =  6.0

     negative rho (up, down):  2.806E-02 2.620E-02

     total cpu time spent up to now is      278.9 secs

     total energy              =    -591.67388048 Ry
     estimated scf accuracy    <          2.7E-09 Ry

     total magnetization       =     1.00 Bohr mag/cell
     absolute magnetization    =     1.14 Bohr mag/cell

     iteration # 26     ecut=    58.80 Ry     beta= 0.30
     Davidson diagonalization with overlap
     ethr =  4.42E-12,  avg # of iterations =  6.0

     negative rho (up, down):  2.806E-02 2.620E-02

     total cpu time spent up to now is      290.1 secs

     total energy              =    -591.67388043 Ry
     estimated scf accuracy    <          2.1E-09 Ry

     total magnetization       =     1.00 Bohr mag/cell
     absolute magnetization    =     1.14 Bohr mag/cell

     iteration # 27     ecut=    58.80 Ry     beta= 0.30
     Davidson diagonalization with overlap
     ethr =  3.52E-12,  avg # of iterations =  6.0

     negative rho (up, down):  2.806E-02 2.620E-02

     total cpu time spent up to now is      302.0 secs

     total energy              =    -591.67388038 Ry
     estimated scf accuracy    <          1.3E-09 Ry

     total magnetization       =     1.00 Bohr mag/cell
     absolute magnetization    =     1.14 Bohr mag/cell

     iteration # 28     ecut=    58.80 Ry     beta= 0.30
     Davidson diagonalization with overlap
     ethr =  2.20E-12,  avg # of iterations =  6.5

     negative rho (up, down):  2.806E-02 2.620E-02

     Magnetic moment per site  (integrated on atomic sphere of radius R)
     atom   1 (R=0.033)  charge= 12.9046  magn=  0.8180
     atom   2 (R=0.017)  charge=  1.9682  magn=  0.0057
     atom   3 (R=0.017)  charge=  1.9678  magn=  0.0057
     atom   4 (R=0.017)  charge=  1.9553  magn=  0.0038
     atom   5 (R=0.017)  charge=  1.9537  magn=  0.0038
     atom   6 (R=0.017)  charge=  1.9536  magn=  0.0045
     atom   7 (R=0.017)  charge=  1.9524  magn=  0.0045
     atom   8 (R=0.017)  charge=  0.3781  magn= -0.0006
     atom   9 (R=0.017)  charge=  0.3791  magn=  0.0001
     atom  10 (R=0.017)  charge=  0.3785  magn= -0.0006
     atom  11 (R=0.017)  charge=  0.3805  magn= -0.0005
     atom  12 (R=0.017)  charge=  0.3773  magn=  0.0000
     atom  13 (R=0.017)  charge=  0.3794  magn=  0.0001
     atom  14 (R=0.017)  charge=  0.3791  magn=  0.0001
     atom  15 (R=0.017)  charge=  0.3792  magn=  0.0001
     atom  16 (R=0.017)  charge=  0.3774  magn=  0.0000
     atom  17 (R=0.017)  charge=  0.3781  magn= -0.0006
     atom  18 (R=0.017)  charge=  0.3805  magn= -0.0005
     atom  19 (R=0.017)  charge=  0.3785  magn= -0.0006

     total cpu time spent up to now is      314.2 secs

     End of self-consistent calculation

 ------ SPIN UP ------------


          k = 0.0000 0.0000 0.0000 (744371 PWs)   bands (ev):

  -102.9972 -69.5267 -68.8014 -68.7424 -35.6859 -35.3338 -35.3181 -35.2847
   -35.2434 -35.2248 -23.3061 -23.2924 -23.1965 -23.1673 -23.1055 -23.0712
   -22.1884 -21.2913 -21.2598 -20.5156 -20.4966 -20.3945 -18.5866 -17.8229
   -17.7987 -17.5459 -17.4105 -17.3702 -16.2056 -15.4769 -15.4710

 ------ SPIN DOWN ----------


          k = 0.0000 0.0000 0.0000 (744371 PWs)   bands (ev):

  -101.9450 -68.2155 -67.9049 -67.8718 -35.6647 -35.3115 -35.3000 -35.2665
   -35.2219 -35.2070 -23.2935 -23.2805 -23.1898 -23.1616 -23.0992 -23.0414
   -22.1557 -21.2029 -21.1674 -20.5174 -20.4992 -20.3966 -18.0268 -17.6922
   -17.6621 -17.4763 -17.3522 -17.3195 -15.0343 -15.0243 -14.3511

     highest occupied, lowest unoccupied level (ev):   -15.0243  -14.3511

!    total energy              =    -591.67388046 Ry
     total all-electron energy =      -591.673880 Ry
     estimated scf accuracy    <          7.1E-10 Ry

     The total energy is the sum of the following terms:
     one-electron contribution =   -1808.44905981 Ry
     hartree contribution      =     866.83293568 Ry
     xc contribution           =     -72.72911717 Ry
     ewald contribution        =     549.38270592 Ry
     one-center paw contrib.   =    -126.71134508 Ry

     total magnetization       =     1.00 Bohr mag/cell
     absolute magnetization    =     1.14 Bohr mag/cell

     convergence has been achieved in  28 iterations

     negative rho (up, down):  2.806E-02 2.620E-02

     Forces acting on atoms (cartesian axes, Ry/au):

     atom    1 type  1   force =     0.00004190    0.00033023   -0.00008862
     atom    2 type  2   force =     0.00578356   -0.00044068    0.00788214
     atom    3 type  2   force =    -0.00563638    0.00017250   -0.00799072
     atom    4 type  2   force =    -0.00569797   -0.00740551    0.00510054
     atom    5 type  2   force =     0.00545859    0.00705106   -0.00491519
     atom    6 type  2   force =     0.00424511   -0.00490657   -0.00727139
     atom    7 type  2   force =    -0.00446820    0.00480091    0.00726644
     atom    8 type  3   force =     0.00096011    0.01761468    0.00221920
     atom    9 type  3   force =    -0.00806708    0.00722055   -0.01364156
     atom   10 type  3   force =    -0.01491081    0.00966093   -0.00020992
     atom   11 type  3   force =    -0.01534225   -0.00711175   -0.00540490
     atom   12 type  3   force =    -0.00364618    0.01022206    0.01387214
     atom   13 type  3   force =     0.01187735    0.00885708   -0.00938404
     atom   14 type  3   force =     0.00810879   -0.00712997    0.01356587
     atom   15 type  3   force =    -0.01181775   -0.00878663    0.00950646
     atom   16 type  3   force =     0.00362787   -0.01009190   -0.01394033
     atom   17 type  3   force =    -0.00085660   -0.01756767   -0.00215156
     atom   18 type  3   force =     0.01542456    0.00708979    0.00532546
     atom   19 type  3   force =     0.01491539   -0.00957911    0.00025997

     Total force =     0.065799     Total SCF correction =     0.000018


     Computing stress (Cartesian axis) and pressure


     negative rho (up, down):  2.806E-02 2.620E-02
          total   stress  (Ry/bohr**3)                   (kbar)     P=       -0.06
  -0.00000026  -0.00000006   0.00000007           -0.04       -0.01        0.01
  -0.00000006  -0.00000032   0.00000006           -0.01       -0.05        0.01
   0.00000007   0.00000006  -0.00000069            0.01        0.01       -0.10


     Writing all to output data dir ./out/FeH2O6.save/ :
     XML data file, charge density, pseudopotentials, collected wavefunctions

     init_run     :     11.64s CPU     11.19s WALL (       1 calls)
     electrons    :    338.73s CPU    303.25s WALL (       1 calls)
     forces       :      3.94s CPU      3.37s WALL (       1 calls)
     stress       :     17.52s CPU     17.03s WALL (       1 calls)

     Called by init_run:
     wfcinit      :      6.78s CPU      6.30s WALL (       1 calls)
     potinit      :      1.01s CPU      1.05s WALL (       1 calls)
     hinit0       :      0.62s CPU      0.64s WALL (       1 calls)

     Called by electrons:
     c_bands      :    140.94s CPU    121.88s WALL (      28 calls)
     sum_band     :    127.95s CPU    113.12s WALL (      28 calls)
     v_of_rho     :     17.73s CPU     17.85s WALL (      29 calls)
     newd         :     36.00s CPU     33.75s WALL (      29 calls)
     PAW_pot      :      9.14s CPU      9.17s WALL (      29 calls)
     mix_rho      :      8.25s CPU      8.29s WALL (      28 calls)

     Called by c_bands:
     init_us_2    :      2.13s CPU      2.16s WALL (     118 calls)
     init_us_2:cp :      2.13s CPU      2.16s WALL (     118 calls)
     cegterg      :    136.35s CPU    117.47s WALL (      56 calls)

     Called by *egterg:
     cdiaghg      :      1.07s CPU      0.57s WALL (     296 calls)
     h_psi        :    114.82s CPU    108.49s WALL (     298 calls)
     s_psi        :      6.87s CPU      3.50s WALL (     298 calls)
     g_psi        :      0.75s CPU      0.39s WALL (     240 calls)

     Called by h_psi:
     h_psi:calbec :      7.36s CPU      3.86s WALL (     298 calls)
     vloc_psi     :     99.73s CPU    100.06s WALL (     298 calls)
     add_vuspsi   :      6.83s CPU      3.46s WALL (     298 calls)

     General routines
     calbec       :      9.67s CPU      5.07s WALL (     364 calls)
     fft          :     14.61s CPU     14.75s WALL (     651 calls)
     ffts         :      1.09s CPU      1.08s WALL (      56 calls)
     fftw         :     91.20s CPU     91.81s WALL (   11668 calls)

     Parallel routines

     PWSCF        :   6m12.96s CPU   5m37.69s WALL


   This run was terminated on:   6: 1:27  11Mar2026            

=------------------------------------------------------------------------------=
   JOB DONE.
=------------------------------------------------------------------------------=
