&CONTROL
  calculation   = 'scf'
  restart_mode  = 'from_scratch'
  prefix        = 'Co1_2'
  outdir        = './out_Co1_2'
  pseudo_dir    = '.'
  tstress       = .true.
  tprnfor       = .true.
/
&SYSTEM
  ibrav         = 0
  nat           = 13           
  ntyp          = 2
  tot_charge    = 0
  ecutwfc       = 45.0         ! ~600 eV in Ry (1 Ry ≈ 13.6 eV)
  input_dft     = 'PBE'
  nspin         = 2            ! Spin-polarized calculation
  starting_magnetization(1) = 3.0  ! Initial guess for Co1
  starting_magnetization(2) = 3.0  ! Initial guess for Co2
  occupations = 'smearing',
  smearing    = 'gaussian',
  degauss     = 0.01         ! Adjust as needed (in Ry)
/
&ELECTRONS
  conv_thr    = 1.0d-6
  mixing_beta = 0.3
/

CELL_PARAMETERS {angstrom}
     14.23456672       0.00000000       0.00000000
      0.00000000      14.23456672       0.00000000
      0.00000000       0.00000000      14.23456672

ATOMIC_SPECIES
  Co1  58.9332  Co.GGA-PBE-paw.UPF
  Co2  58.9332  Co.GGA-PBE-paw.UPF

ATOMIC_POSITIONS {angstrom}
 Co1 7.11725437806771 7.11725173218167 7.11725570101073
 Co2 9.09289631526896 7.11733809390206 5.89725537471156
 Co2 9.09280672556759 7.11734518487666 8.33735122628968
 Co2 5.14153471531811 7.11732671659209 5.8971289542765
 Co2 5.14166633227336 7.11733380756668 8.33744076307332
 Co2 5.89725442219259 9.09289959616765 7.11733904642104
 Co2 8.33735207297321 9.09281122357386 7.11734597864247
 Co2 5.89713043597268 5.14153364108838 7.11732756327562
 Co2 8.33743949304802 5.14166441665187 7.11733460133249
 Co2 7.11733846432611 5.89725611555965 9.09289679152844
 Co2 7.11734550238298 8.33735096170107 9.09281048272577
 Co2 7.1173275103579 5.89712837218157 5.14153306957699
 Co2 7.11733460133249 8.33744118641509 5.1416614532595

K_POINTS {automatic}
1 1 1 0 0 0

