&CONTROL
   calculation      = 'relax'
   restart_mode     = 'from_scratch'
   tstress          = .false.
   tprnfor          = .true.
   outdir           = './hBN_66_qe'
   prefix           = 'hBN_66_qe'
   disk_io          = 'low'
   pseudo_dir       = '.'
/
&SYSTEM
   nbnd             = 150
   tot_magnetization = 0
   ecutwfc          = 58.79758929883875
   ecutrho          = 235.190357195355
   nspin            = 1
   input_dft        = 'PBE'
   assume_isolated  = 'none'
   ntyp             = 2
   nat              = 72
   ibrav            = 0
/
&ELECTRONS
   conv_thr         = 1e-09
   mixing_beta      = 0.5
   startingpot      = 'file'
   startingwfc      = 'atomic'
/
&IONS
/
&CELL
/
&FCP
/
&RISM
/
ATOMIC_SPECIES
B 10.81 B.GGA-PBE-paw.UPF
N 14.007 N.GGA-PBE-paw.UPF

K_POINTS automatic
1 1 1  0 0 0

CELL_PARAMETERS angstrom
15.02400000000000 0.00000000000000 0.00000000000000
-7.51200000000000 13.01116566645740 0.00000000000000
0.00000000000000 -0.00000000000000 16.00000000000000

ATOMIC_POSITIONS angstrom
B 0.0000000000 0.0000000000 8.0000000000  
N 1.2520000000 0.7228425370 8.0000000000  
B -1.2520000000 2.1685276111 8.0000000000  
N 0.0000000000 2.8913701481 8.0000000000  
B -2.5040000000 4.3370552222 8.0000000000  
N -1.2520000000 5.0598977592 8.0000000000  
B -3.7560000000 6.5055828332 8.0000000000  
N -2.5040000000 7.2284253703 8.0000000000  
B -5.0080000000 8.6741104443 8.0000000000  
N -3.7560000000 9.3969529813 8.0000000000  
B -6.2600000000 10.8426380554 8.0000000000  
N -5.0080000000 11.5654805924 8.0000000000  
B 2.5040000000 0.0000000000 8.0000000000  
N 3.7560000000 0.7228425370 8.0000000000  
B 1.2520000000 2.1685276111 8.0000000000  
N 2.5040000000 2.8913701481 8.0000000000  
B 0.0000000000 4.3370552222 8.0000000000  
N 1.2520000000 5.0598977592 8.0000000000  
B -1.2520000000 6.5055828332 8.0000000000  
N -0.0000000000 7.2284253703 8.0000000000  
B -2.5040000000 8.6741104443 8.0000000000  
N -1.2520000000 9.3969529813 8.0000000000  
B -3.7560000000 10.8426380554 8.0000000000  
N -2.5040000000 11.5654805924 8.0000000000  
B 5.0080000000 0.0000000000 8.0000000000  
N 6.2600000000 0.7228425370 8.0000000000  
B 3.7560000000 2.1685276111 8.0000000000  
N 5.0080000000 2.8913701481 8.0000000000  
B 2.5040000000 4.3370552222 8.0000000000  
N 3.7560000000 5.0598977592 8.0000000000  
B 1.2520000000 6.5055828332 8.0000000000  
N 2.5040000000 7.2284253703 8.0000000000  
B 0.0000000000 8.6741104443 8.0000000000  
N 1.2520000000 9.3969529813 8.0000000000  
B -1.2520000000 10.8426380554 8.0000000000  
N 0.0000000000 11.5654805924 8.0000000000  
B 7.5120000000 0.0000000000 8.0000000000  
N 8.7640000000 0.7228425370 8.0000000000  
B 6.2600000000 2.1685276111 8.0000000000  
N 7.5120000000 2.8913701481 8.0000000000  
B 5.0080000000 4.3370552222 8.0000000000  
N 6.2600000000 5.0598977592 8.0000000000  
B 3.7560000000 6.5055828332 8.0000000000  
N 5.0080000000 7.2284253703 8.0000000000  
B 2.5040000000 8.6741104443 8.0000000000  
N 3.7560000000 9.3969529813 8.0000000000  
B 1.2520000000 10.8426380554 8.0000000000  
N 2.5040000000 11.5654805924 8.0000000000  
B 10.0160000000 0.0000000000 8.0000000000  
N 11.2680000000 0.7228425370 8.0000000000  
B 8.7640000000 2.1685276111 8.0000000000  
N 10.0160000000 2.8913701481 8.0000000000  
B 7.5120000000 4.3370552222 8.0000000000  
N 8.7640000000 5.0598977592 8.0000000000  
B 6.2600000000 6.5055828332 8.0000000000  
N 7.5120000000 7.2284253703 8.0000000000  
B 5.0080000000 8.6741104443 8.0000000000  
N 6.2600000000 9.3969529813 8.0000000000  
B 3.7560000000 10.8426380554 8.0000000000  
N 5.0080000000 11.5654805924 8.0000000000  
B 12.5200000000 0.0000000000 8.0000000000  
N 13.7720000000 0.7228425370 8.0000000000  
B 11.2680000000 2.1685276111 8.0000000000  
N 12.5200000000 2.8913701481 8.0000000000  
B 10.0160000000 4.3370552222 8.0000000000  
N 11.2680000000 5.0598977592 8.0000000000  
B 8.7640000000 6.5055828332 8.0000000000  
N 10.0160000000 7.2284253703 8.0000000000  
B 7.5120000000 8.6741104443 8.0000000000  
N 8.7640000000 9.3969529813 8.0000000000  
B 6.2600000000 10.8426380554 8.0000000000  
N 7.5120000000 11.5654805924 8.0000000000  

