
     Program PWSCF v.7.3.1 starts on 12Mar2026 at  8:43:19 

     This program is part of the open-source Quantum ESPRESSO suite
     for quantum simulation of materials; please cite
         "P. Giannozzi et al., J. Phys.:Condens. Matter 21 395502 (2009);
         "P. Giannozzi et al., J. Phys.:Condens. Matter 29 465901 (2017);
         "P. Giannozzi et al., J. Chem. Phys. 152 154105 (2020);
          URL http://www.quantum-espresso.org", 
     in publications or presentations arising from this work. More details at
     http://www.quantum-espresso.org/quote

     Parallel version (MPI), running on    64 processors

     MPI processes distributed on     1 nodes
     244688 MiB available memory on the printing compute node when the environment starts

     Reading input from Fe2_tert-butoxide_6_HighSpin.in

     Current dimensions of program PWSCF are:
     Max number of different atomic species (ntypx) = 10
     Max number of k-points (npk) =  40000
     Max angular momentum in pseudopotentials (lmaxx) =  4
read_pp_mesh; mismatch in mesh size, discarding the one in header
read_pp_mesh; mismatch in mesh size, discarding the one in header
read_pp_mesh; mismatch in mesh size, discarding the one in header
read_pp_mesh; mismatch in mesh size, discarding the one in header
     file Fe.GGA-PBE-paw.UPF: wavefunction(s)  4S 3P 4P 3D 4D renormalized
     file O.GGA-PBE-paw.UPF: wavefunction(s)  3S 2P 3P renormalized
     file H.GGA-PBE-paw.UPF: wavefunction(s)  2S 2P renormalized
     file C.GGA-PBE-paw.UPF: wavefunction(s)  3S 3P renormalized

     R & G space division:  proc/nbgrp/npool/nimage =      64
     Subspace diagonalization in iterative solution of the eigenvalue problem:
     a serial algorithm will be used


     Parallelization info
     --------------------
     sticks:   dense  smooth     PW     G-vecs:    dense   smooth      PW
     Min         956     956    239               171747   171747   21469
     Max         958     958    240               171750   171750   21474
     Sum       61197   61197  15311             10991921 10991921 1374165

     Using Slab Decomposition



     bravais-lattice index     =            0
     lattice parameter (alat)  =      56.8956  a.u.
     unit-cell volume          =  180460.2187 (a.u.)^3
     number of atoms/cell      =           86
     number of atomic types    =            4
     number of electrons       =       218.00 (up: 114.00, down: 104.00)
     number of Kohn-Sham states=          114
     kinetic-energy cutoff     =      58.8000  Ry
     charge density cutoff     =     235.2000  Ry
     scf convergence threshold =      1.0E-09
     mixing beta               =       0.3000
     number of iterations used =            8  plain     mixing
     Exchange-correlation= SLA PW PBX PBC
                           (   1   4   3   4   0   0   0)
     Hubbard projectors: ortho-atomic
     Hubbard parameters of DFT+U (Dudarev formulation) in eV:
     U(Fe-3d) =  4.0000

     Internal variables: lda_plus_u =T, lda_plus_u_kind = 0

     celldm(1)=  56.895596  celldm(2)=   0.000000  celldm(3)=   0.000000
     celldm(4)=   0.000000  celldm(5)=   0.000000  celldm(6)=   0.000000

     crystal axes: (cart. coord. in units of alat)
               a(1) = (   1.000000   0.000000   0.000000 )  
               a(2) = (   0.000000   1.010150   0.000000 )  
               a(3) = (   0.000000   0.000000   0.969973 )  

     reciprocal axes: (cart. coord. in units 2 pi/alat)
               b(1) = (  1.000000  0.000000  0.000000 )  
               b(2) = (  0.000000  0.989952  0.000000 )  
               b(3) = (  0.000000  0.000000  1.030957 )  


     PseudoPot. # 1 for Fe read from file:
     /work/e89/e89/phsmea/CASTEP_TO_QS_ARCHER_PBE/Fe.GGA-PBE-paw.UPF
     MD5 check sum: 2d46233e65fd0c9f60bb7b941dda812a
     Pseudo is Projector augmented-wave + core cor, Zval = 16.0
     Generated using ATOMPAW code
     Shape of augmentation charge: SINC**2
     Using radial grid of 2342 points,  6 beta functions with: 
                l(1) =   0
                l(2) =   0
                l(3) =   1
                l(4) =   1
                l(5) =   2
                l(6) =   2
     Q(r) pseudized with 0 coefficients 


     PseudoPot. # 2 for O  read from file:
     /work/e89/e89/phsmea/CASTEP_TO_QS_ARCHER_PBE/O.GGA-PBE-paw.UPF
     MD5 check sum: 75cebe6e27812ecd511c7c5e5b8738d8
     Pseudo is Projector augmented-wave + core cor, Zval =  6.0
     Generated using ATOMPAW code
     Shape of augmentation charge: SINC**2
     Using radial grid of 2342 points,  4 beta functions with: 
                l(1) =   0
                l(2) =   0
                l(3) =   1
                l(4) =   1
     Q(r) pseudized with 0 coefficients 


     PseudoPot. # 3 for H  read from file:
     /work/e89/e89/phsmea/CASTEP_TO_QS_ARCHER_PBE/H.GGA-PBE-paw.UPF
     MD5 check sum: b9d592600ff6b56d2e28875790887365
     Pseudo is Projector augmented-wave + core cor, Zval =  1.0
     Generated using ATOMPAW code
     Shape of augmentation charge: SINC**2
     Using radial grid of 2342 points,  3 beta functions with: 
                l(1) =   0
                l(2) =   0
                l(3) =   1
     Q(r) pseudized with 0 coefficients 


     PseudoPot. # 4 for C  read from file:
     /work/e89/e89/phsmea/CASTEP_TO_QS_ARCHER_PBE/C.GGA-PBE-paw.UPF
     MD5 check sum: 4aa9e32dab6042a76c944283fa01cc46
     Pseudo is Projector augmented-wave + core cor, Zval =  4.0
     Generated using ATOMPAW code
     Shape of augmentation charge: SINC**2
     Using radial grid of 2342 points,  4 beta functions with: 
                l(1) =   0
                l(2) =   0
                l(3) =   1
                l(4) =   1
     Q(r) pseudized with 0 coefficients 


     atomic species   valence    mass     pseudopotential
     Fe               16.00    55.84500     Fe( 1.00)
     O                 6.00    16.00000     O ( 1.00)
     H                 1.00     1.00800     H ( 1.00)
     C                 4.00    12.01100     C ( 1.00)

     Starting magnetic structure 
     atomic species   magnetization
     Fe              0.312
     O               0.000
     H               0.000
     C               0.000

     No symmetry found



   Cartesian axes

     site n.     atom                  positions (alat units)
         1        Fe     tau(   1) = (   0.4961871   0.5455305   0.4589029  )
         2        Fe     tau(   2) = (   0.5209239   0.4657083   0.5124288  )
         3        O      tau(   3) = (   0.4976120   0.4796225   0.4528686  )
         4        O      tau(   4) = (   0.5385805   0.5730541   0.4265705  )
         5        O      tau(   5) = (   0.4417115   0.5692751   0.4534470  )
         6        C      tau(   6) = (   0.4729730   0.4515133   0.4233846  )
         7        C      tau(   7) = (   0.5411916   0.6074070   0.3949580  )
         8        C      tau(   8) = (   0.4016886   0.5817579   0.4739942  )
         9        C      tau(   9) = (   0.4966617   0.4069300   0.4208745  )
        10        H      tau(  10) = (   0.5305158   0.4111269   0.4085805  )
        11        H      tau(  11) = (   0.4790959   0.3844259   0.3984907  )
        12        H      tau(  12) = (   0.4979884   0.3912048   0.4535888  )
        13        C      tau(  13) = (   0.4260462   0.4456139   0.4412009  )
        14        H      tau(  14) = (   0.4269502   0.4322854   0.4749151  )
        15        H      tau(  15) = (   0.4071567   0.4229278   0.4200868  )
        16        H      tau(  16) = (   0.4088737   0.4775191   0.4418342  )
        17        C      tau(  17) = (   0.4721769   0.4735809   0.3779474  )
        18        H      tau(  18) = (   0.4550360   0.5055568   0.3795908  )
        19        H      tau(  19) = (   0.4545823   0.4527839   0.3539814  )
        20        H      tau(  20) = (   0.5059353   0.4790784   0.3658831  )
        21        C      tau(  21) = (   0.5886007   0.6078612   0.3771214  )
        22        H      tau(  22) = (   0.6121095   0.6139138   0.4040752  )
        23        H      tau(  23) = (   0.5929224   0.6337485   0.3520400  )
        24        H      tau(  24) = (   0.5965548   0.5758022   0.3621330  )
        25        C      tau(  25) = (   0.5303957   0.6515823   0.4173433  )
        26        H      tau(  26) = (   0.4967321   0.6507836   0.4308796  )
        27        H      tau(  27) = (   0.5326040   0.6790976   0.3937644  )
        28        H      tau(  28) = (   0.5536789   0.6579476   0.4444428  )
        29        C      tau(  29) = (   0.5084281   0.5985947   0.3573110  )
        30        H      tau(  30) = (   0.5158451   0.5668595   0.3413650  )
        31        H      tau(  31) = (   0.5102585   0.6246872   0.3321393  )
        32        H      tau(  32) = (   0.4745219   0.5974635   0.3702088  )
        33        C      tau(  33) = (   0.3944887   0.5544967   0.5160740  )
        34        H      tau(  34) = (   0.3930304   0.5191060   0.5083221  )
        35        H      tau(  35) = (   0.3634939   0.5638973   0.5324580  )
        36        H      tau(  36) = (   0.4217710   0.5596784   0.5394118  )
        37        C      tau(  37) = (   0.3640454   0.5735891   0.4410431  )
        38        H      tau(  38) = (   0.3698266   0.5924232   0.4105907  )
        39        H      tau(  39) = (   0.3321393   0.5837779   0.4550290  )
        40        H      tau(  40) = (   0.3619988   0.5384118   0.4324640  )
        41        C      tau(  41) = (   0.4041065   0.6311332   0.4852126  )
        42        H      tau(  42) = (   0.4313982   0.6376087   0.5082037  )
        43        H      tau(  43) = (   0.3732634   0.6424598   0.5006439  )
        44        H      tau(  44) = (   0.4096382   0.6505740   0.4550882  )
        45        O      tau(  45) = (   0.5195000   0.5316163   0.5184626  )
        46        O      tau(  46) = (   0.4785302   0.4381845   0.5447606  )
        47        O      tau(  47) = (   0.5753994   0.4419639   0.5178860  )
        48        C      tau(  48) = (   0.5441421   0.5597249   0.5479444  )
        49        C      tau(  49) = (   0.4759188   0.4038302   0.5763716  )
        50        C      tau(  50) = (   0.6154270   0.4294912   0.4973419  )
        51        C      tau(  51) = (   0.5204549   0.6043088   0.5504561  )
        52        H      tau(  52) = (   0.4866016   0.6001129   0.5627527  )
        53        H      tau(  53) = (   0.5380231   0.6268125   0.5728385  )
        54        H      tau(  54) = (   0.5191262   0.6200339   0.5177419  )
        55        C      tau(  55) = (   0.5910674   0.5656223   0.5301231  )
        56        H      tau(  56) = (   0.5901603   0.5789511   0.4964091  )
        57        H      tau(  57) = (   0.6099600   0.5883074   0.5512353  )
        58        H      tau(  58) = (   0.6082384   0.5337163   0.5294875  )
        59        C      tau(  59) = (   0.5449419   0.5376574   0.5933815  )
        60        H      tau(  60) = (   0.5620819   0.5056811   0.5917367  )
        61        H      tau(  61) = (   0.5625392   0.5584541   0.6173459  )
        62        H      tau(  62) = (   0.5111845   0.5321607   0.6054490  )
        63        C      tau(  63) = (   0.4285099   0.4033762   0.5942087  )
        64        H      tau(  64) = (   0.4050006   0.3973254   0.5672549  )
        65        H      tau(  65) = (   0.4241879   0.3774880   0.6192890  )
        66        H      tau(  66) = (   0.4205567   0.4354348   0.6091986  )
        67        C      tau(  67) = (   0.4867134   0.3596555   0.5539843  )
        68        H      tau(  68) = (   0.5203768   0.3604539   0.5404476  )
        69        H      tau(  69) = (   0.4845045   0.3321393   0.5775621  )
        70        H      tau(  70) = (   0.4634296   0.3532919   0.5268849  )
        71        C      tau(  71) = (   0.5086829   0.4126403   0.6140186  )
        72        H      tau(  72) = (   0.5012668   0.4443751   0.6299658  )
        73        H      tau(  73) = (   0.5068519   0.3865469   0.6391895  )
        74        H      tau(  74) = (   0.5425890   0.4137709   0.6011206  )
        75        C      tau(  75) = (   0.6226393   0.4567780   0.4552810  )
        76        H      tau(  76) = (   0.6240965   0.4921640   0.4630551  )
        77        H      tau(  77) = (   0.6536381   0.4473865   0.4388994  )
        78        H      tau(  78) = (   0.5953631   0.4516116   0.4319328  )
        79        C      tau(  79) = (   0.6530621   0.4376384   0.5303078  )
        80        H      tau(  80) = (   0.6472719   0.4187862   0.5607474  )
        81        H      tau(  81) = (   0.6849713   0.4274564   0.5163241  )
        82        H      tau(  82) = (   0.6551083   0.4728104   0.5389085  )
        83        C      tau(  83) = (   0.6130098   0.3801228   0.4860931  )
        84        H      tau(  84) = (   0.5857241   0.3736627   0.4630906  )
        85        H      tau(  85) = (   0.6438565   0.3688041   0.4706633  )
        86        H      tau(  86) = (   0.6074689   0.3606641   0.5162042  )

     number of k points=     1
                       cart. coord. in units 2pi/alat
        k(    1) = (   0.0000000   0.0000000   0.0000000), wk =   1.0000000

     Dense  grid: 10991921 G-vectors     FFT dimensions: ( 288, 288, 270)

     Estimated max dynamical RAM per process >       1.39 GB

     Estimated total dynamical RAM >      89.05 GB

     Check: negative core charge=   -0.000002
     Generating pointlists ...
     new r_m :   0.0246 (alat units)  1.4005 (a.u.) for type    1
     new r_m :   0.0193 (alat units)  1.0958 (a.u.) for type    2
     new r_m :   0.0149 (alat units)  0.8505 (a.u.) for type    3
     new r_m :   0.0149 (alat units)  0.8505 (a.u.) for type    4

     Initial potential from superposition of free atoms

     starting charge     217.9969, renormalised to     218.0000

     negative rho (up, down):  3.649E-02 2.311E-02

     STARTING HUBBARD OCCUPATIONS:

     =================== HUBBARD OCCUPATIONS ===================
     ------------------------ ATOM    1 ------------------------
     Tr[ns(  1)] (up, down, total) =   5.00000  2.00000  7.00000
     Atomic magnetic moment for atom   1 =   3.00000
     SPIN  1
     eigenvalues:
       1.000  1.000  1.000  1.000  1.000
     eigenvectors (columns):
       1.000  0.000  0.000  0.000  0.000
       0.000  1.000  0.000  0.000  0.000
       0.000  0.000  1.000  0.000  0.000
       0.000  0.000  0.000  1.000  0.000
       0.000  0.000  0.000  0.000  1.000
     occupation matrix ns (before diag.):
       1.000  0.000  0.000  0.000  0.000
       0.000  1.000  0.000  0.000  0.000
       0.000  0.000  1.000  0.000  0.000
       0.000  0.000  0.000  1.000  0.000
       0.000  0.000  0.000  0.000  1.000
     SPIN  2
     eigenvalues:
       0.400  0.400  0.400  0.400  0.400
     eigenvectors (columns):
       1.000  0.000  0.000  0.000  0.000
       0.000  1.000  0.000  0.000  0.000
       0.000  0.000  1.000  0.000  0.000
       0.000  0.000  0.000  1.000  0.000
       0.000  0.000  0.000  0.000  1.000
     occupation matrix ns (before diag.):
       0.400  0.000  0.000  0.000  0.000
       0.000  0.400  0.000  0.000  0.000
       0.000  0.000  0.400  0.000  0.000
       0.000  0.000  0.000  0.400  0.000
       0.000  0.000  0.000  0.000  0.400
     ------------------------ ATOM    2 ------------------------
     Tr[ns(  2)] (up, down, total) =   5.00000  2.00000  7.00000
     Atomic magnetic moment for atom   2 =   3.00000
     SPIN  1
     eigenvalues:
       1.000  1.000  1.000  1.000  1.000
     eigenvectors (columns):
       1.000  0.000  0.000  0.000  0.000
       0.000  1.000  0.000  0.000  0.000
       0.000  0.000  1.000  0.000  0.000
       0.000  0.000  0.000  1.000  0.000
       0.000  0.000  0.000  0.000  1.000
     occupation matrix ns (before diag.):
       1.000  0.000  0.000  0.000  0.000
       0.000  1.000  0.000  0.000  0.000
       0.000  0.000  1.000  0.000  0.000
       0.000  0.000  0.000  1.000  0.000
       0.000  0.000  0.000  0.000  1.000
     SPIN  2
     eigenvalues:
       0.400  0.400  0.400  0.400  0.400
     eigenvectors (columns):
       1.000  0.000  0.000  0.000  0.000
       0.000  1.000  0.000  0.000  0.000
       0.000  0.000  1.000  0.000  0.000
       0.000  0.000  0.000  1.000  0.000
       0.000  0.000  0.000  0.000  1.000
     occupation matrix ns (before diag.):
       0.400  0.000  0.000  0.000  0.000
       0.000  0.400  0.000  0.000  0.000
       0.000  0.000  0.400  0.000  0.000
       0.000  0.000  0.000  0.400  0.000
       0.000  0.000  0.000  0.000  0.400

     Number of occupied Hubbard levels =   14.0000

     Atomic wfc used for Hubbard projectors are orthogonalized

     Starting wfcs are  546 randomized atomic wfcs
     Checking if some PAW data can be deallocated... 

     total cpu time spent up to now is       92.1 secs

     per-process dynamical memory:   460.9 Mb

     Self-consistent Calculation

     iteration #  1     ecut=    58.80 Ry     beta= 0.30
     Davidson diagonalization with overlap
     ethr =  1.00E-02,  avg # of iterations =  2.5

     =================== HUBBARD OCCUPATIONS ===================
     ------------------------ ATOM    1 ------------------------
     Tr[ns(  1)] (up, down, total) =   4.86662  0.29147  5.15808
     Atomic magnetic moment for atom   1 =   4.57515
     SPIN  1
     eigenvalues:
       0.961  0.964  0.973  0.981  0.988
     eigenvectors (columns):
       0.487 -0.035  0.709  0.151  0.485
      -0.246  0.715 -0.227  0.061  0.611
      -0.333  0.265  0.518 -0.720 -0.179
      -0.665 -0.048  0.407  0.612 -0.122
       0.387  0.645  0.108  0.282 -0.586
     occupation matrix ns (before diag.):
       0.974  0.006 -0.000  0.003 -0.006
       0.006  0.973 -0.005 -0.002 -0.008
      -0.000 -0.005  0.975 -0.006 -0.000
       0.003 -0.002 -0.006  0.971  0.006
      -0.006 -0.008 -0.000  0.006  0.973
     SPIN  2
     eigenvalues:
       0.027  0.040  0.066  0.071  0.088
     eigenvectors (columns):
       0.224 -0.518 -0.664 -0.458  0.176
       0.025 -0.641  0.188  0.622  0.408
      -0.908  0.073 -0.305  0.023  0.275
       0.133  0.193 -0.639  0.631 -0.372
       0.326  0.528 -0.147  0.072  0.767
     occupation matrix ns (before diag.):
       0.059 -0.009  0.010 -0.002  0.007
      -0.009  0.061  0.005  0.002  0.016
       0.010  0.005  0.035  0.002  0.015
      -0.002  0.002  0.002  0.069 -0.010
       0.007  0.016  0.015 -0.010  0.067
     ------------------------ ATOM    2 ------------------------
     Tr[ns(  2)] (up, down, total) =   4.86895  0.29368  5.16263
     Atomic magnetic moment for atom   2 =   4.57528
     SPIN  1
     eigenvalues:
       0.962  0.965  0.974  0.981  0.988
     eigenvectors (columns):
      -0.410 -0.263  0.700 -0.075  0.516
      -0.124  0.735 -0.254 -0.040  0.615
       0.126  0.365  0.429  0.796 -0.181
       0.614  0.317  0.488 -0.526 -0.088
      -0.651  0.396  0.151 -0.287 -0.561
     occupation matrix ns (before diag.):
       0.975  0.006 -0.000  0.003 -0.006
       0.006  0.974 -0.004 -0.002 -0.009
      -0.000 -0.004  0.977 -0.005 -0.000
       0.003 -0.002 -0.005  0.970  0.005
      -0.006 -0.009 -0.000  0.005  0.972
     SPIN  2
     eigenvalues:
       0.027  0.041  0.067  0.071  0.088
     eigenvectors (columns):
       0.250 -0.474  0.728  0.343  0.255
       0.024 -0.633 -0.267 -0.614  0.388
      -0.900  0.090  0.305 -0.079  0.286
       0.146  0.211  0.550 -0.695 -0.386
       0.324  0.567  0.058 -0.127  0.744
     occupation matrix ns (before diag.):
       0.060 -0.007  0.011 -0.002  0.008
      -0.007  0.061  0.005  0.002  0.015
       0.011  0.005  0.036  0.003  0.015
      -0.002  0.002  0.003  0.070 -0.011
       0.008  0.015  0.015 -0.011  0.066

     Number of occupied Hubbard levels =   10.3207

     negative rho (up, down):  3.739E-02 2.420E-02

     total cpu time spent up to now is      131.1 secs

     total energy              =   -1413.38187393 Ry
     estimated scf accuracy    <      14.24710600 Ry

     total magnetization       =    10.00 Bohr mag/cell
     absolute magnetization    =    10.25 Bohr mag/cell

     iteration #  2     ecut=    58.80 Ry     beta= 0.30
     Davidson diagonalization with overlap
     ethr =  6.54E-03,  avg # of iterations =  3.0

     negative rho (up, down):  3.890E-02 2.478E-02

     total cpu time spent up to now is      163.7 secs

     total energy              =   -1414.62012492 Ry
     estimated scf accuracy    <       1.86922441 Ry

     total magnetization       =    10.00 Bohr mag/cell
     absolute magnetization    =    10.22 Bohr mag/cell

     iteration #  3     ecut=    58.80 Ry     beta= 0.30
     Davidson diagonalization with overlap
     ethr =  8.57E-04,  avg # of iterations =  2.0

     negative rho (up, down):  4.011E-02 2.541E-02

     total cpu time spent up to now is      194.1 secs

     total energy              =   -1414.75913689 Ry
     estimated scf accuracy    <       0.52450648 Ry

     total magnetization       =    10.00 Bohr mag/cell
     absolute magnetization    =    10.14 Bohr mag/cell

     iteration #  4     ecut=    58.80 Ry     beta= 0.30
     Davidson diagonalization with overlap
     ethr =  2.41E-04,  avg # of iterations =  1.0

     negative rho (up, down):  4.178E-02 2.628E-02

     total cpu time spent up to now is      221.8 secs

     total energy              =   -1414.78146580 Ry
     estimated scf accuracy    <       0.20230820 Ry

     total magnetization       =    10.00 Bohr mag/cell
     absolute magnetization    =    10.09 Bohr mag/cell

     iteration #  5     ecut=    58.80 Ry     beta= 0.30
     Davidson diagonalization with overlap
     ethr =  9.28E-05,  avg # of iterations =  2.5

     negative rho (up, down):  4.175E-02 2.628E-02

     total cpu time spent up to now is      254.7 secs

     total energy              =   -1414.80174147 Ry
     estimated scf accuracy    <       0.08550139 Ry

     total magnetization       =    10.00 Bohr mag/cell
     absolute magnetization    =    10.12 Bohr mag/cell

     iteration #  6     ecut=    58.80 Ry     beta= 0.30
     Davidson diagonalization with overlap
     ethr =  3.92E-05,  avg # of iterations =  2.5

     negative rho (up, down):  4.176E-02 2.626E-02

     total cpu time spent up to now is      285.4 secs

     total energy              =   -1414.82004771 Ry
     estimated scf accuracy    <       0.00622998 Ry

     total magnetization       =    10.00 Bohr mag/cell
     absolute magnetization    =    10.09 Bohr mag/cell

     iteration #  7     ecut=    58.80 Ry     beta= 0.30
     Davidson diagonalization with overlap
     ethr =  2.86E-06,  avg # of iterations =  2.0

     negative rho (up, down):  4.179E-02 2.625E-02

     total cpu time spent up to now is      315.8 secs

     total energy              =   -1414.82096643 Ry
     estimated scf accuracy    <       0.00186168 Ry

     total magnetization       =    10.00 Bohr mag/cell
     absolute magnetization    =    10.09 Bohr mag/cell

     iteration #  8     ecut=    58.80 Ry     beta= 0.30
     Davidson diagonalization with overlap
     ethr =  8.54E-07,  avg # of iterations =  1.5

     negative rho (up, down):  4.179E-02 2.623E-02

     total cpu time spent up to now is      344.3 secs

     total energy              =   -1414.82115593 Ry
     estimated scf accuracy    <       0.00059094 Ry

     total magnetization       =    10.00 Bohr mag/cell
     absolute magnetization    =    10.09 Bohr mag/cell

     iteration #  9     ecut=    58.80 Ry     beta= 0.30
     Davidson diagonalization with overlap
     ethr =  2.71E-07,  avg # of iterations =  2.0

     negative rho (up, down):  4.178E-02 2.621E-02

     total cpu time spent up to now is      373.8 secs

     total energy              =   -1414.82125239 Ry
     estimated scf accuracy    <       0.00020252 Ry

     total magnetization       =    10.00 Bohr mag/cell
     absolute magnetization    =    10.09 Bohr mag/cell

     iteration # 10     ecut=    58.80 Ry     beta= 0.30
     Davidson diagonalization with overlap
     ethr =  9.29E-08,  avg # of iterations =  2.0

     negative rho (up, down):  4.179E-02 2.620E-02

     total cpu time spent up to now is      403.2 secs

     total energy              =   -1414.82127465 Ry
     estimated scf accuracy    <       0.00004762 Ry

     total magnetization       =    10.00 Bohr mag/cell
     absolute magnetization    =    10.09 Bohr mag/cell

     iteration # 11     ecut=    58.80 Ry     beta= 0.30
     Davidson diagonalization with overlap
     ethr =  2.18E-08,  avg # of iterations =  2.5

     negative rho (up, down):  4.180E-02 2.619E-02

     total cpu time spent up to now is      439.2 secs

     total energy              =   -1414.82127680 Ry
     estimated scf accuracy    <       0.00003144 Ry

     total magnetization       =    10.00 Bohr mag/cell
     absolute magnetization    =    10.09 Bohr mag/cell

     iteration # 12     ecut=    58.80 Ry     beta= 0.30
     Davidson diagonalization with overlap
     ethr =  1.44E-08,  avg # of iterations =  2.0

     negative rho (up, down):  4.180E-02 2.619E-02

     total cpu time spent up to now is      474.6 secs

     total energy              =   -1414.82128711 Ry
     estimated scf accuracy    <       0.00000863 Ry

     total magnetization       =    10.00 Bohr mag/cell
     absolute magnetization    =    10.09 Bohr mag/cell

     iteration # 13     ecut=    58.80 Ry     beta= 0.30
     Davidson diagonalization with overlap
     ethr =  3.96E-09,  avg # of iterations =  2.0

     negative rho (up, down):  4.180E-02 2.618E-02

     total cpu time spent up to now is      508.9 secs

     total energy              =   -1414.82128895 Ry
     estimated scf accuracy    <       0.00000064 Ry

     total magnetization       =    10.00 Bohr mag/cell
     absolute magnetization    =    10.09 Bohr mag/cell

     iteration # 14     ecut=    58.80 Ry     beta= 0.30
     Davidson diagonalization with overlap
     ethr =  2.91E-10,  avg # of iterations =  3.0

     negative rho (up, down):  4.180E-02 2.618E-02

     total cpu time spent up to now is      542.4 secs

     total energy              =   -1414.82128929 Ry
     estimated scf accuracy    <       0.00000019 Ry

     total magnetization       =    10.00 Bohr mag/cell
     absolute magnetization    =    10.09 Bohr mag/cell

     iteration # 15     ecut=    58.80 Ry     beta= 0.30
     Davidson diagonalization with overlap
     ethr =  8.88E-11,  avg # of iterations =  2.5

     negative rho (up, down):  4.180E-02 2.618E-02

     total cpu time spent up to now is      574.4 secs

     total energy              =   -1414.82128940 Ry
     estimated scf accuracy    <       0.00000005 Ry

     total magnetization       =    10.00 Bohr mag/cell
     absolute magnetization    =    10.09 Bohr mag/cell

     iteration # 16     ecut=    58.80 Ry     beta= 0.30
     Davidson diagonalization with overlap
     ethr =  2.07E-11,  avg # of iterations =  3.0

     negative rho (up, down):  4.180E-02 2.618E-02

     total cpu time spent up to now is      605.6 secs

     total energy              =   -1414.82128942 Ry
     estimated scf accuracy    <       0.00000002 Ry

     total magnetization       =    10.00 Bohr mag/cell
     absolute magnetization    =    10.09 Bohr mag/cell

     iteration # 17     ecut=    58.80 Ry     beta= 0.30
     Davidson diagonalization with overlap
     ethr =  8.24E-12,  avg # of iterations =  2.0

     negative rho (up, down):  4.180E-02 2.618E-02

     total cpu time spent up to now is      635.7 secs

     total energy              =   -1414.82128943 Ry
     estimated scf accuracy    <          4.4E-09 Ry

     total magnetization       =    10.00 Bohr mag/cell
     absolute magnetization    =    10.09 Bohr mag/cell

     iteration # 18     ecut=    58.80 Ry     beta= 0.30
     Davidson diagonalization with overlap
     ethr =  2.01E-12,  avg # of iterations =  3.0

     negative rho (up, down):  4.180E-02 2.618E-02

     total cpu time spent up to now is      667.0 secs

     total energy              =   -1414.82128944 Ry
     estimated scf accuracy    <          1.2E-09 Ry

     total magnetization       =    10.00 Bohr mag/cell
     absolute magnetization    =    10.09 Bohr mag/cell

     iteration # 19     ecut=    58.80 Ry     beta= 0.30
     Davidson diagonalization with overlap
     ethr =  5.31E-13,  avg # of iterations =  3.0

     negative rho (up, down):  4.180E-02 2.618E-02

     Magnetic moment per site  (integrated on atomic sphere of radius R)
     atom   1 (R=0.025)  charge= 12.3316  magn=  3.4920
     atom   2 (R=0.025)  charge= 12.3326  magn=  3.4924
     atom   3 (R=0.019)  charge=  3.7618  magn=  0.1426
     atom   4 (R=0.019)  charge=  3.7587  magn=  0.1833
     atom   5 (R=0.019)  charge=  3.7618  magn=  0.1855
     atom   6 (R=0.015)  charge=  0.8145  magn=  0.0033
     atom   7 (R=0.015)  charge=  0.8164  magn=  0.0032
     atom   8 (R=0.015)  charge=  0.8159  magn=  0.0045
     atom   9 (R=0.015)  charge=  0.8594  magn=  0.0021
     atom  10 (R=0.015)  charge=  0.4987  magn= -0.0000
     atom  11 (R=0.015)  charge=  0.4978  magn=  0.0007
     atom  12 (R=0.015)  charge=  0.4974  magn=  0.0002
     atom  13 (R=0.015)  charge=  0.8612  magn=  0.0011
     atom  14 (R=0.015)  charge=  0.4963  magn=  0.0000
     atom  15 (R=0.015)  charge=  0.4986  magn=  0.0005
     atom  16 (R=0.015)  charge=  0.5003  magn= -0.0000
     atom  17 (R=0.015)  charge=  0.8598  magn=  0.0020
     atom  18 (R=0.015)  charge=  0.4971  magn=  0.0001
     atom  19 (R=0.015)  charge=  0.4972  magn=  0.0008
     atom  20 (R=0.015)  charge=  0.4982  magn= -0.0000
     atom  21 (R=0.015)  charge=  0.8607  magn=  0.0025
     atom  22 (R=0.015)  charge=  0.4993  magn= -0.0001
     atom  23 (R=0.015)  charge=  0.4991  magn=  0.0012
     atom  24 (R=0.015)  charge=  0.4982  magn= -0.0001
     atom  25 (R=0.015)  charge=  0.8587  magn=  0.0026
     atom  26 (R=0.015)  charge=  0.4975  magn= -0.0001
     atom  27 (R=0.015)  charge=  0.4968  magn=  0.0006
     atom  28 (R=0.015)  charge=  0.4974  magn= -0.0001
     atom  29 (R=0.015)  charge=  0.8560  magn=  0.0026
     atom  30 (R=0.015)  charge=  0.4999  magn= -0.0001
     atom  31 (R=0.015)  charge=  0.4979  magn=  0.0005
     atom  32 (R=0.015)  charge=  0.4984  magn= -0.0002
     atom  33 (R=0.015)  charge=  0.8596  magn=  0.0022
     atom  34 (R=0.015)  charge=  0.4982  magn= -0.0001
     atom  35 (R=0.015)  charge=  0.4986  magn=  0.0004
     atom  36 (R=0.015)  charge=  0.4996  magn= -0.0001
     atom  37 (R=0.015)  charge=  0.8586  magn=  0.0030
     atom  38 (R=0.015)  charge=  0.4987  magn= -0.0001
     atom  39 (R=0.015)  charge=  0.4977  magn=  0.0012
     atom  40 (R=0.015)  charge=  0.4985  magn= -0.0001
     atom  41 (R=0.015)  charge=  0.8589  magn=  0.0029
     atom  42 (R=0.015)  charge=  0.4997  magn= -0.0001
     atom  43 (R=0.015)  charge=  0.4984  magn=  0.0010
     atom  44 (R=0.015)  charge=  0.4988  magn= -0.0001
     atom  45 (R=0.019)  charge=  3.7574  magn=  0.1424
     atom  46 (R=0.019)  charge=  3.7583  magn=  0.1834
     atom  47 (R=0.019)  charge=  3.7621  magn=  0.1854
     atom  48 (R=0.015)  charge=  0.8120  magn=  0.0033
     atom  49 (R=0.015)  charge=  0.8146  magn=  0.0032
     atom  50 (R=0.015)  charge=  0.8128  magn=  0.0045
     atom  51 (R=0.015)  charge=  0.8599  magn=  0.0021
     atom  52 (R=0.015)  charge=  0.4989  magn= -0.0000
     atom  53 (R=0.015)  charge=  0.4979  magn=  0.0007
     atom  54 (R=0.015)  charge=  0.4979  magn=  0.0002
     atom  55 (R=0.015)  charge=  0.8607  magn=  0.0011
     atom  56 (R=0.015)  charge=  0.4957  magn=  0.0000
     atom  57 (R=0.015)  charge=  0.4970  magn=  0.0005
     atom  58 (R=0.015)  charge=  0.4994  magn= -0.0000
     atom  59 (R=0.015)  charge=  0.8600  magn=  0.0020
     atom  60 (R=0.015)  charge=  0.4969  magn=  0.0001
     atom  61 (R=0.015)  charge=  0.4976  magn=  0.0008
     atom  62 (R=0.015)  charge=  0.4974  magn= -0.0000
     atom  63 (R=0.015)  charge=  0.8600  magn=  0.0025
     atom  64 (R=0.015)  charge=  0.4998  magn= -0.0001
     atom  65 (R=0.015)  charge=  0.4982  magn=  0.0012
     atom  66 (R=0.015)  charge=  0.4989  magn= -0.0001
     atom  67 (R=0.015)  charge=  0.8590  magn=  0.0026
     atom  68 (R=0.015)  charge=  0.4978  magn= -0.0001
     atom  69 (R=0.015)  charge=  0.4975  magn=  0.0006
     atom  70 (R=0.015)  charge=  0.4984  magn= -0.0001
     atom  71 (R=0.015)  charge=  0.8612  magn=  0.0026
     atom  72 (R=0.015)  charge=  0.4976  magn= -0.0001
     atom  73 (R=0.015)  charge=  0.4985  magn=  0.0005
     atom  74 (R=0.015)  charge=  0.4977  magn= -0.0002
     atom  75 (R=0.015)  charge=  0.8589  magn=  0.0022
     atom  76 (R=0.015)  charge=  0.4992  magn= -0.0001
     atom  77 (R=0.015)  charge=  0.4985  magn=  0.0004
     atom  78 (R=0.015)  charge=  0.4986  magn= -0.0001
     atom  79 (R=0.015)  charge=  0.8588  magn=  0.0029
     atom  80 (R=0.015)  charge=  0.4997  magn= -0.0001
     atom  81 (R=0.015)  charge=  0.4989  magn=  0.0012
     atom  82 (R=0.015)  charge=  0.4995  magn= -0.0001
     atom  83 (R=0.015)  charge=  0.8566  magn=  0.0029
     atom  84 (R=0.015)  charge=  0.5007  magn= -0.0001
     atom  85 (R=0.015)  charge=  0.4989  magn=  0.0010
     atom  86 (R=0.015)  charge=  0.4985  magn= -0.0001

     total cpu time spent up to now is      701.4 secs

     End of self-consistent calculation

     =================== HUBBARD OCCUPATIONS ===================
     ------------------------ ATOM    1 ------------------------
     Tr[ns(  1)] (up, down, total) =   4.89656  1.07087  5.96743
     Atomic magnetic moment for atom   1 =   3.82569
     SPIN  1
     eigenvalues:
       0.974  0.977  0.978  0.983  0.985
     eigenvectors (columns):
      -0.309  0.674 -0.318 -0.591 -0.027
      -0.140 -0.688 -0.181 -0.627  0.287
      -0.050 -0.225 -0.735  0.192 -0.608
       0.500  0.146 -0.552  0.173  0.627
      -0.795 -0.035 -0.146  0.437  0.393
     occupation matrix ns (before diag.):
       0.979  0.002 -0.000 -0.000 -0.002
       0.002  0.980 -0.002  0.001 -0.001
      -0.000 -0.002  0.981 -0.002 -0.001
      -0.000  0.001 -0.002  0.980  0.004
      -0.002 -0.001 -0.001  0.004  0.977
     SPIN  2
     eigenvalues:
       0.074  0.223  0.236  0.240  0.297
     eigenvectors (columns):
      -0.322  0.416 -0.296 -0.780 -0.165
      -0.062 -0.705  0.422 -0.544  0.156
       0.874 -0.009 -0.064 -0.255 -0.408
       0.073 -0.437 -0.843 -0.008  0.305
      -0.351 -0.371 -0.140  0.175 -0.830
     occupation matrix ns (before diag.):
       0.221  0.001  0.050  0.003 -0.008
       0.001  0.232  0.005 -0.000 -0.015
       0.050  0.005  0.123 -0.018  0.070
       0.003 -0.000 -0.018  0.239 -0.013
      -0.008 -0.015  0.070 -0.013  0.257
     ------------------------ ATOM    2 ------------------------
     Tr[ns(  2)] (up, down, total) =   4.89656  1.07090  5.96746
     Atomic magnetic moment for atom   2 =   3.82567
     SPIN  1
     eigenvalues:
       0.974  0.977  0.978  0.983  0.985
     eigenvectors (columns):
      -0.309  0.674 -0.318 -0.591 -0.027
      -0.140 -0.688 -0.180 -0.627  0.286
      -0.050 -0.226 -0.735  0.192 -0.608
       0.500  0.146 -0.552  0.173  0.627
      -0.795 -0.035 -0.146  0.437  0.393
     occupation matrix ns (before diag.):
       0.979  0.002 -0.000 -0.000 -0.002
       0.002  0.980 -0.002  0.001 -0.001
      -0.000 -0.002  0.981 -0.002 -0.001
      -0.000  0.001 -0.002  0.980  0.004
      -0.002 -0.001 -0.001  0.004  0.977
     SPIN  2
     eigenvalues:
       0.074  0.223  0.236  0.240  0.297
     eigenvectors (columns):
      -0.322  0.416 -0.295 -0.780 -0.165
      -0.062 -0.706  0.423 -0.544  0.156
       0.874 -0.009 -0.064 -0.255 -0.408
       0.073 -0.437 -0.843 -0.009  0.305
      -0.351 -0.371 -0.140  0.175 -0.830
     occupation matrix ns (before diag.):
       0.221  0.001  0.050  0.003 -0.008
       0.001  0.232  0.005 -0.000 -0.015
       0.050  0.005  0.123 -0.018  0.070
       0.003 -0.000 -0.018  0.239 -0.013
      -0.008 -0.015  0.070 -0.013  0.257

     Number of occupied Hubbard levels =   11.9349

 ------ SPIN UP ------------


          k = 0.0000 0.0000 0.0000 (****** PWs)   bands (ev):

   -95.5883 -95.5870 -61.7452 -61.7450 -61.6038 -61.5891 -61.3894 -61.3888
   -24.9250 -24.7449 -24.3903 -24.3839 -24.2623 -24.2604 -19.4546 -19.3426
   -19.0554 -19.0535 -18.9517 -18.9500 -16.9832 -16.9807 -16.8500 -16.8467
   -16.6968 -16.6951 -16.6876 -16.6841 -16.6271 -16.6225 -16.6024 -16.6009
   -14.2193 -13.6931 -13.6502 -13.6331 -13.4800 -13.4763 -12.1101 -11.9772
   -11.8909 -11.8378 -11.7988 -11.7017 -11.6394 -11.5032 -11.4515 -11.2164
   -11.0669 -10.9566 -10.9104 -10.8631 -10.7892 -10.6807 -10.6647 -10.6366
   -10.5113 -10.4985 -10.4403 -10.3979 -10.3949 -10.2159 -10.1193 -10.0543
   -10.0116  -9.9114  -9.5766  -9.5168  -9.5051  -9.4463  -9.3932  -9.3051
    -9.2986  -9.2603  -9.1895  -9.1742  -9.1613  -9.1571  -9.1423  -8.7941
    -8.6655  -8.6519  -8.4954  -8.4783  -8.4693  -8.4179  -8.3839  -8.3794
    -8.3330  -8.3277  -8.2853  -8.1914  -8.1364  -8.1326  -7.9949  -7.9634
    -7.9468  -7.9232  -7.9097  -7.8985  -7.8891  -7.7514  -6.9024  -6.8126
    -6.2811  -6.1955  -5.8420  -5.7265  -5.6210  -5.5860  -5.4444  -5.3988
    -5.3250  -5.2130

 ------ SPIN DOWN ----------


          k = 0.0000 0.0000 0.0000 (****** PWs)   bands (ev):

   -90.8656 -90.8640 -57.0793 -57.0771 -56.9750 -56.9547 -56.8761 -56.8758
   -24.6252 -24.3963 -24.0034 -23.9890 -23.8670 -23.8624 -19.3665 -19.2401
   -18.9368 -18.9336 -18.8336 -18.8325 -16.9660 -16.9613 -16.8369 -16.8350
   -16.6787 -16.6784 -16.6712 -16.6662 -16.6105 -16.6058 -16.5847 -16.5832
   -13.8507 -13.2757 -13.2522 -13.2000 -13.0235 -13.0099 -11.6703 -11.3328
   -11.2779 -11.2215 -11.1217 -11.0868 -11.0376 -10.9977 -10.9163 -10.8848
   -10.7028 -10.6934 -10.6498 -10.6219 -10.5766 -10.5661 -10.5521 -10.5483
    -9.6652  -9.6319  -9.5622  -9.4895  -9.4210  -9.3409  -9.3048  -9.2918
    -9.2857  -9.2557  -9.2205  -9.1917  -9.1862  -8.9511  -8.8902  -8.8705
    -8.7509  -8.7360  -8.6605  -8.6563  -8.5315  -8.4614  -8.4448  -8.4248
    -8.3976  -8.3932  -8.2761  -8.2714  -8.0348  -8.0277  -8.0191  -7.9798
    -7.9473  -7.9434  -7.9226  -7.8936  -7.2797  -7.2623  -6.8937  -6.6619
    -6.3513  -6.3016  -6.1201  -5.9835  -5.9382  -5.8776  -5.7126  -5.6625
    -3.1110  -2.9828  -2.7282  -2.5848  -2.5432  -2.4053  -2.3199  -2.2489
    -2.0882  -2.0462

     highest occupied, lowest unoccupied level (ev):    -5.2130   -3.1110

!    total energy              =   -1414.82128944 Ry
     total all-electron energy =     -1414.821289 Ry
     estimated scf accuracy    <          3.1E-10 Ry

     The total energy is the sum of the following terms:
     one-electron contribution =   -8672.53576428 Ry
     hartree contribution      =    4317.42605627 Ry
     xc contribution           =    -236.47094628 Ry
     ewald contribution        =    3520.98274643 Ry
     Hubbard energy            =       0.26899606 Ry
     one-center paw contrib.   =    -344.49237764 Ry

     total magnetization       =    10.00 Bohr mag/cell
     absolute magnetization    =    10.09 Bohr mag/cell

     convergence has been achieved in  19 iterations

     negative rho (up, down):  4.180E-02 2.618E-02

     Forces acting on atoms (cartesian axes, Ry/au):

     atom    1 type  1   force =     0.00120148   -0.00792332    0.00606541
     atom    2 type  1   force =    -0.00110246    0.00891582   -0.00532548
     atom    3 type  2   force =     0.00490268    0.00158020   -0.00256387
     atom    4 type  2   force =     0.02047804   -0.00157067   -0.00417789
     atom    5 type  2   force =    -0.01336026    0.00729827   -0.01182897
     atom    6 type  4   force =    -0.00379541   -0.00514282   -0.00540725
     atom    7 type  4   force =    -0.00042777    0.00575425   -0.00499445
     atom    8 type  4   force =    -0.00529508    0.00063810    0.00350526
     atom    9 type  4   force =     0.00035719   -0.00257284   -0.00028047
     atom   10 type  3   force =     0.00734127    0.00047617   -0.00265508
     atom   11 type  3   force =    -0.00353720   -0.00507896   -0.00487783
     atom   12 type  3   force =     0.00036925   -0.00369221    0.00599402
     atom   13 type  4   force =    -0.00183074   -0.00056804   -0.00066046
     atom   14 type  3   force =    -0.00066058   -0.00321457    0.00702291
     atom   15 type  3   force =    -0.00454460   -0.00480559   -0.00416022
     atom   16 type  3   force =    -0.00438865    0.00672404    0.00036081
     atom   17 type  4   force =    -0.00066486    0.00068098   -0.00221873
     atom   18 type  3   force =    -0.00337046    0.00629164   -0.00038320
     atom   19 type  3   force =    -0.00359918   -0.00428717   -0.00544144
     atom   20 type  3   force =     0.00715362    0.00139289   -0.00304429
     atom   21 type  4   force =     0.00272150    0.00067354   -0.00153882
     atom   22 type  3   force =     0.00546360    0.00132080    0.00570860
     atom   23 type  3   force =     0.00126872    0.00555472   -0.00543578
     atom   24 type  3   force =     0.00215420   -0.00671773   -0.00352219
     atom   25 type  4   force =    -0.00101269    0.00167335    0.00172671
     atom   26 type  3   force =    -0.00695778    0.00056545    0.00283583
     atom   27 type  3   force =     0.00040454    0.00619882   -0.00472772
     atom   28 type  3   force =     0.00494067    0.00185967    0.00601269
     atom   29 type  4   force =    -0.00144762   -0.00093313   -0.00178925
     atom   30 type  3   force =     0.00136337   -0.00675426   -0.00362763
     atom   31 type  3   force =     0.00001959    0.00538346   -0.00576838
     atom   32 type  3   force =    -0.00733402   -0.00027244    0.00212274
     atom   33 type  4   force =    -0.00126217   -0.00066158    0.00134709
     atom   34 type  3   force =    -0.00052252   -0.00769385   -0.00124739
     atom   35 type  3   force =    -0.00675495    0.00163784    0.00404483
     atom   36 type  3   force =     0.00529888    0.00113469    0.00534503
     atom   37 type  4   force =    -0.00273149   -0.00070265   -0.00284722
     atom   38 type  3   force =     0.00080894    0.00403488   -0.00688472
     atom   39 type  3   force =    -0.00734722    0.00216481    0.00266486
     atom   40 type  3   force =    -0.00101925   -0.00769281   -0.00208347
     atom   41 type  4   force =    -0.00009546    0.00275452    0.00124416
     atom   42 type  3   force =     0.00568438    0.00178746    0.00491763
     atom   43 type  3   force =    -0.00655935    0.00293370    0.00334802
     atom   44 type  3   force =     0.00112890    0.00464292   -0.00632149
     atom   45 type  2   force =    -0.00485801   -0.00143065    0.00261402
     atom   46 type  2   force =    -0.02050632    0.00151837    0.00414299
     atom   47 type  2   force =     0.01336245   -0.00736953    0.01181631
     atom   48 type  4   force =     0.00331832    0.00451140    0.00503556
     atom   49 type  4   force =     0.00050659   -0.00518600    0.00509461
     atom   50 type  4   force =     0.00578794   -0.00102786   -0.00384483
     atom   51 type  4   force =    -0.00058376    0.00296845    0.00146836
     atom   52 type  3   force =    -0.00737393   -0.00052493    0.00263099
     atom   53 type  3   force =     0.00352011    0.00503556    0.00483766
     atom   54 type  3   force =    -0.00038607    0.00360670   -0.00599683
     atom   55 type  4   force =     0.00232426    0.00133296   -0.00097245
     atom   56 type  3   force =     0.00063559    0.00318625   -0.00710175
     atom   57 type  3   force =     0.00452378    0.00475312    0.00413352
     atom   58 type  3   force =     0.00433644   -0.00674296   -0.00039392
     atom   59 type  4   force =     0.00047891   -0.00033814    0.00341953
     atom   60 type  3   force =     0.00331878   -0.00631330    0.00035724
     atom   61 type  3   force =     0.00358767    0.00424724    0.00541172
     atom   62 type  3   force =    -0.00718762   -0.00144324    0.00301781
     atom   63 type  4   force =    -0.00253788   -0.00016390    0.00156942
     atom   64 type  3   force =    -0.00546882   -0.00136154   -0.00574139
     atom   65 type  3   force =    -0.00129106   -0.00559543    0.00541117
     atom   66 type  3   force =    -0.00218824    0.00669583    0.00352119
     atom   67 type  4   force =     0.00122572   -0.00236731    0.00005551
     atom   68 type  3   force =     0.00694899   -0.00061240   -0.00288023
     atom   69 type  3   force =    -0.00042918   -0.00627146    0.00469814
     atom   70 type  3   force =    -0.00493152   -0.00190521   -0.00603505
     atom   71 type  4   force =     0.00177297   -0.00039503    0.00156922
     atom   72 type  3   force =    -0.00136976    0.00666220    0.00356056
     atom   73 type  3   force =    -0.00004304   -0.00544562    0.00574347
     atom   74 type  3   force =     0.00731686    0.00022382   -0.00215714
     atom   75 type  4   force =     0.00125449    0.00203123   -0.00309381
     atom   76 type  3   force =     0.00050408    0.00767058    0.00121977
     atom   77 type  3   force =     0.00675179   -0.00169532   -0.00407321
     atom   78 type  3   force =    -0.00534805   -0.00118736   -0.00539845
     atom   79 type  4   force =     0.00247152   -0.00043156    0.00151095
     atom   80 type  3   force =    -0.00081878   -0.00405594    0.00683131
     atom   81 type  3   force =     0.00733447   -0.00221799   -0.00270000
     atom   82 type  3   force =     0.00099951    0.00761464    0.00205680
     atom   83 type  4   force =    -0.00008303   -0.00224504    0.00023784
     atom   84 type  3   force =    -0.00568398   -0.00183041   -0.00495178
     atom   85 type  3   force =     0.00652260   -0.00297451   -0.00337837
     atom   86 type  3   force =    -0.00115381   -0.00471404    0.00630065

     Total force =     0.075325     Total SCF correction =     0.000030


     Computing stress (Cartesian axis) and pressure


     negative rho (up, down):  4.180E-02 2.618E-02
          total   stress  (Ry/bohr**3)                   (kbar)     P=        0.68
   0.00000510  -0.00000008  -0.00000014            0.75       -0.01       -0.02
  -0.00000008   0.00000440  -0.00000037           -0.01        0.65       -0.05
  -0.00000014  -0.00000037   0.00000432           -0.02       -0.05        0.64


     Writing all to output data dir ./out/Fe2_tert-butoxide_6_HighSpin.save/ :
     XML data file, charge density, pseudopotentials, collected wavefunctions

     init_run     :     72.94s CPU     74.20s WALL (       1 calls)
     electrons    :    596.72s CPU    610.80s WALL (       1 calls)
     forces       :    702.51s CPU    703.60s WALL (       1 calls)
     stress       :   1947.48s CPU   1949.28s WALL (       1 calls)

     Called by init_run:
     wfcinit      :     59.50s CPU     60.20s WALL (       1 calls)
     potinit      :      2.19s CPU      2.35s WALL (       1 calls)
     hinit0       :      3.03s CPU      3.14s WALL (       1 calls)

     Called by electrons:
     c_bands      :    391.87s CPU    395.48s WALL (      19 calls)
     sum_band     :    128.90s CPU    135.35s WALL (      19 calls)
     v_of_rho     :     15.17s CPU     15.38s WALL (      20 calls)
     newd         :     29.30s CPU     32.49s WALL (      20 calls)
     PAW_pot      :     26.91s CPU     26.92s WALL (      20 calls)
     mix_rho      :      6.57s CPU      6.63s WALL (      19 calls)

     Called by c_bands:
     init_us_2    :     14.70s CPU     14.76s WALL (      88 calls)
     cegterg      :    377.01s CPU    380.56s WALL (      38 calls)

     Called by *egterg:
     cdiaghg      :      5.25s CPU      5.27s WALL (     126 calls)
     h_psi        :    312.41s CPU    313.72s WALL (     128 calls)
     s_psi        :     50.23s CPU     50.25s WALL (     138 calls)
     g_psi        :      0.77s CPU      0.77s WALL (      88 calls)

     Called by h_psi:
     h_psi:calbec :     40.05s CPU     40.05s WALL (     128 calls)
     vloc_psi     :    224.87s CPU    225.04s WALL (     128 calls)
     add_vuspsi   :     38.90s CPU     38.91s WALL (     128 calls)
     vhpsi        :      7.15s CPU      7.15s WALL (     128 calls)

     General routines
     calbec       :    522.09s CPU    522.25s WALL (   16886 calls)
     fft          :     13.96s CPU     14.30s WALL (     462 calls)
     ffts         :      0.63s CPU      0.65s WALL (      38 calls)
     fftw         :    233.54s CPU    233.74s WALL (   27534 calls)

     Parallel routines

     Hubbard U routines
     new_ns       :      1.98s CPU      1.99s WALL (      19 calls)
     vhpsi        :      7.15s CPU      7.15s WALL (     128 calls)
     force_hub    :    690.87s CPU    691.36s WALL (       1 calls)
                                        0.00s GPU  (       1 calls)
     stres_hub    :   1833.44s CPU   1834.29s WALL (       1 calls)
                                        0.00s GPU  (       1 calls)

     PWSCF        :  55m34.03s CPU  56m12.65s WALL


   This run was terminated on:   9:39:32  12Mar2026            

=------------------------------------------------------------------------------=
   JOB DONE.
=------------------------------------------------------------------------------=
