
     Program PWSCF v.7.3.1 starts on 12Mar2026 at  8:43:41 

     This program is part of the open-source Quantum ESPRESSO suite
     for quantum simulation of materials; please cite
         "P. Giannozzi et al., J. Phys.:Condens. Matter 21 395502 (2009);
         "P. Giannozzi et al., J. Phys.:Condens. Matter 29 465901 (2017);
         "P. Giannozzi et al., J. Chem. Phys. 152 154105 (2020);
          URL http://www.quantum-espresso.org", 
     in publications or presentations arising from this work. More details at
     http://www.quantum-espresso.org/quote

     Parallel version (MPI), running on   128 processors

     MPI processes distributed on     2 nodes
     242041 MiB available memory on the printing compute node when the environment starts

     Reading input from Fe3_O_piv_6_H2O_3_LowSpin.in

     Current dimensions of program PWSCF are:
     Max number of different atomic species (ntypx) = 10
     Max number of k-points (npk) =  40000
     Max angular momentum in pseudopotentials (lmaxx) =  4
read_pp_mesh; mismatch in mesh size, discarding the one in header
read_pp_mesh; mismatch in mesh size, discarding the one in header
read_pp_mesh; mismatch in mesh size, discarding the one in header
read_pp_mesh; mismatch in mesh size, discarding the one in header
     file Fe.GGA-PBE-paw.UPF: wavefunction(s)  4S 3P 4P 3D 4D renormalized
     file O.GGA-PBE-paw.UPF: wavefunction(s)  3S 2P 3P renormalized
     file H.GGA-PBE-paw.UPF: wavefunction(s)  2S 2P renormalized
     file C.GGA-PBE-paw.UPF: wavefunction(s)  3S 3P renormalized
     Message from routine setup:
     the system is metallic, specify occupations

     R & G space division:  proc/nbgrp/npool/nimage =     128
     Subspace diagonalization in iterative solution of the eigenvalue problem:
     one sub-group per band group will be used
     custom distributed-memory algorithm (size of sub-group:  2*  2 procs)


     Parallelization info
     --------------------
     sticks:   dense  smooth     PW     G-vecs:    dense   smooth      PW
     Min         542     542    135               100828   100828   12601
     Max         543     543    136               100837   100837   12608
     Sum       69493   69493  17367             12906675 12906675 1613349

     Using Slab Decomposition



     bravais-lattice index     =            0
     lattice parameter (alat)  =      61.4318  a.u.
     unit-cell volume          =  211893.4902 (a.u.)^3
     number of atoms/cell      =          109
     number of atomic types    =            4
     number of electrons       =       323.00 (up: 163.00, down: 160.00)
     number of Kohn-Sham states=          163
     kinetic-energy cutoff     =      58.8000  Ry
     charge density cutoff     =     235.2000  Ry
     scf convergence threshold =      1.0E-09
     mixing beta               =       0.3000
     number of iterations used =            8  plain     mixing
     Exchange-correlation= SLA PW PBX PBC
                           (   1   4   3   4   0   0   0)
     Hubbard projectors: ortho-atomic
     Hubbard parameters of DFT+U (Dudarev formulation) in eV:
     U(Fe-3d) =  4.0000

     Internal variables: lda_plus_u =T, lda_plus_u_kind = 0

     celldm(1)=  61.431848  celldm(2)=   0.000000  celldm(3)=   0.000000
     celldm(4)=   0.000000  celldm(5)=   0.000000  celldm(6)=   0.000000

     crystal axes: (cart. coord. in units of alat)
               a(1) = (   1.000000   0.000000   0.000000 )  
               a(2) = (   0.000000   0.983954   0.000000 )  
               a(3) = (   0.000000   0.000000   0.928885 )  

     reciprocal axes: (cart. coord. in units 2 pi/alat)
               b(1) = (  1.000000  0.000000  0.000000 )  
               b(2) = (  0.000000  1.016308  0.000000 )  
               b(3) = (  0.000000  0.000000  1.076559 )  


     PseudoPot. # 1 for Fe read from file:
     /work/e89/e89/phsmea/CASTEP_TO_QS_ARCHER_PBE/Fe.GGA-PBE-paw.UPF
     MD5 check sum: 2d46233e65fd0c9f60bb7b941dda812a
     Pseudo is Projector augmented-wave + core cor, Zval = 16.0
     Generated using ATOMPAW code
     Shape of augmentation charge: SINC**2
     Using radial grid of 2342 points,  6 beta functions with: 
                l(1) =   0
                l(2) =   0
                l(3) =   1
                l(4) =   1
                l(5) =   2
                l(6) =   2
     Q(r) pseudized with 0 coefficients 


     PseudoPot. # 2 for O  read from file:
     /work/e89/e89/phsmea/CASTEP_TO_QS_ARCHER_PBE/O.GGA-PBE-paw.UPF
     MD5 check sum: 75cebe6e27812ecd511c7c5e5b8738d8
     Pseudo is Projector augmented-wave + core cor, Zval =  6.0
     Generated using ATOMPAW code
     Shape of augmentation charge: SINC**2
     Using radial grid of 2342 points,  4 beta functions with: 
                l(1) =   0
                l(2) =   0
                l(3) =   1
                l(4) =   1
     Q(r) pseudized with 0 coefficients 


     PseudoPot. # 3 for H  read from file:
     /work/e89/e89/phsmea/CASTEP_TO_QS_ARCHER_PBE/H.GGA-PBE-paw.UPF
     MD5 check sum: b9d592600ff6b56d2e28875790887365
     Pseudo is Projector augmented-wave + core cor, Zval =  1.0
     Generated using ATOMPAW code
     Shape of augmentation charge: SINC**2
     Using radial grid of 2342 points,  3 beta functions with: 
                l(1) =   0
                l(2) =   0
                l(3) =   1
     Q(r) pseudized with 0 coefficients 


     PseudoPot. # 4 for C  read from file:
     /work/e89/e89/phsmea/CASTEP_TO_QS_ARCHER_PBE/C.GGA-PBE-paw.UPF
     MD5 check sum: 4aa9e32dab6042a76c944283fa01cc46
     Pseudo is Projector augmented-wave + core cor, Zval =  4.0
     Generated using ATOMPAW code
     Shape of augmentation charge: SINC**2
     Using radial grid of 2342 points,  4 beta functions with: 
                l(1) =   0
                l(2) =   0
                l(3) =   1
                l(4) =   1
     Q(r) pseudized with 0 coefficients 


     atomic species   valence    mass     pseudopotential
     Fe               16.00    55.84500     Fe( 1.00)
     O                 6.00    16.00000     O ( 1.00)
     H                 1.00     1.00800     H ( 1.00)
     C                 4.00    12.01100     C ( 1.00)

     Starting magnetic structure 
     atomic species   magnetization
     Fe              0.062
     O               0.000
     H               0.000
     C               0.000

     No symmetry found



   Cartesian axes

     site n.     atom                  positions (alat units)
         1        Fe     tau(   1) = (   0.5301095   0.4514145   0.4654092  )
         2        Fe     tau(   2) = (   0.5010419   0.4938001   0.3828493  )
         3        Fe     tau(   3) = (   0.4573467   0.5155974   0.4673518  )
         4        O      tau(   4) = (   0.4957836   0.4864549   0.4382525  )
         5        O      tau(   5) = (   0.5684911   0.4137681   0.4973895  )
         6        H      tau(   6) = (   0.5911880   0.4055681   0.4801613  )
         7        H      tau(   7) = (   0.5794892   0.4305754   0.5192888  )
         8        O      tau(   8) = (   0.5083513   0.5033746   0.3214557  )
         9        H      tau(   9) = (   0.5356183   0.4939065   0.3145161  )
        10        H      tau(  10) = (   0.5086687   0.5329494   0.3184874  )
        11        O      tau(  11) = (   0.4147913   0.5488906   0.4986944  )
        12        H      tau(  12) = (   0.4210334   0.5478261   0.5276630  )
        13        H      tau(  13) = (   0.4189099   0.5769176   0.4897480  )
        14        O      tau(  14) = (   0.5798812   0.4757167   0.4451371  )
        15        O      tau(  15) = (   0.5605803   0.4940870   0.3818697  )
        16        O      tau(  16) = (   0.5337354   0.4101103   0.4237775  )
        17        O      tau(  17) = (   0.5008348   0.4366992   0.3699071  )
        18        O      tau(  18) = (   0.5020125   0.5529770   0.3837507  )
        19        O      tau(  19) = (   0.4614781   0.5667099   0.4372505  )
        20        O      tau(  20) = (   0.4436795   0.4950115   0.3716894  )
        21        O      tau(  21) = (   0.4134601   0.4978738   0.4332066  )
        22        O      tau(  22) = (   0.4950378   0.5377070   0.5071800  )
        23        O      tau(  23) = (   0.5367306   0.4838703   0.5148209  )
        24        O      tau(  24) = (   0.4434782   0.4728131   0.5050361  )
        25        O      tau(  25) = (   0.4859522   0.4214325   0.4893627  )
        26        C      tau(  26) = (   0.5870083   0.4894601   0.4096990  )
        27        C      tau(  27) = (   0.6308927   0.5032121   0.4000205  )
        28        C      tau(  28) = (   0.6422702   0.4907845   0.3561562  )
        29        H      tau(  29) = (   0.6218838   0.5050149   0.3336538  )
        30        H      tau(  30) = (   0.6410368   0.4574425   0.3520845  )
        31        H      tau(  31) = (   0.6736416   0.5007792   0.3495230  )
        32        C      tau(  32) = (   0.6310727   0.5502640   0.4038093  )
        33        H      tau(  33) = (   0.6090025   0.5641950   0.3826830  )
        34        H      tau(  34) = (   0.6616716   0.5619658   0.3963583  )
        35        H      tau(  35) = (   0.6235932   0.5599974   0.4351016  )
        36        C      tau(  36) = (   0.6614592   0.4847064   0.4303798  )
        37        H      tau(  37) = (   0.6618086   0.4511482   0.4285331  )
        38        H      tau(  38) = (   0.6543483   0.4934810   0.4619553  )
        39        H      tau(  39) = (   0.6923866   0.4956386   0.4231553  )
        40        C      tau(  40) = (   0.5172603   0.4073769   0.3888940  )
        41        C      tau(  41) = (   0.5160330   0.3651139   0.3684978  )
        42        C      tau(  42) = (   0.4741186   0.3465725   0.3798719  )
        43        H      tau(  43) = (   0.4489093   0.3654131   0.3681658  )
        44        H      tau(  44) = (   0.4708430   0.3435908   0.4131804  )
        45        H      tau(  45) = (   0.4714886   0.3159284   0.3663426  )
        46        C      tau(  46) = (   0.5504129   0.3377549   0.3849198  )
        47        H      tau(  47) = (   0.5806877   0.3506764   0.3781102  )
        48        H      tau(  48) = (   0.5485949   0.3076134   0.3702037  )
        49        H      tau(  49) = (   0.5479689   0.3334295   0.4180783  )
        50        C      tau(  50) = (   0.5195365   0.3695012   0.3218854  )
        51        H      tau(  51) = (   0.5489678   0.3831980   0.3131176  )
        52        H      tau(  52) = (   0.4949330   0.3885498   0.3094165  )
        53        H      tau(  53) = (   0.5177525   0.3391437   0.3076134  )
        54        C      tau(  54) = (   0.4824144   0.5772848   0.4065469  )
        55        C      tau(  55) = (   0.4848035   0.6232597   0.3971569  )
        56        C      tau(  56) = (   0.5058766   0.6310907   0.3560307  )
        57        H      tau(  57) = (   0.5078602   0.6641867   0.3506614  )
        58        H      tau(  58) = (   0.4885376   0.6176831   0.3305534  )
        59        H      tau(  59) = (   0.5370037   0.6185745   0.3555175  )
        60        C      tau(  60) = (   0.4412441   0.6410529   0.3964530  )
        61        H      tau(  61) = (   0.4427276   0.6739098   0.3896438  )
        62        H      tau(  62) = (   0.4258729   0.6372368   0.4260165  )
        63        H      tau(  63) = (   0.4223761   0.6264545   0.3727753  )
        64        C      tau(  64) = (   0.5097352   0.6431630   0.4319056  )
        65        H      tau(  65) = (   0.5113854   0.6763404   0.4269007  )
        66        H      tau(  66) = (   0.5411602   0.6312604   0.4327738  )
        67        H      tau(  67) = (   0.4955085   0.6376472   0.4617925  )
        68        C      tau(  68) = (   0.4129221   0.4924232   0.3950223  )
        69        C      tau(  69) = (   0.3720172   0.4812296   0.3748348  )
        70        C      tau(  70) = (   0.3750507   0.4357449   0.3626827  )
        71        H      tau(  71) = (   0.3467178   0.4264484   0.3472011  )
        72        H      tau(  72) = (   0.3789164   0.4161508   0.3897309  )
        73        H      tau(  73) = (   0.4008172   0.4305438   0.3418068  )
        74        C      tau(  74) = (   0.3661941   0.5075364   0.3362768  )
        75        H      tau(  75) = (   0.3373527   0.4990419   0.3212926  )
        76        H      tau(  76) = (   0.3912539   0.5029846   0.3144729  )
        77        H      tau(  77) = (   0.3645007   0.5402273   0.3439578  )
        78        C      tau(  78) = (   0.3362975   0.4876321   0.4044731  )
        79        H      tau(  79) = (   0.3076134   0.4788182   0.3893665  )
        80        H      tau(  80) = (   0.3336965   0.5197727   0.4138448  )
        81        H      tau(  81) = (   0.3397928   0.4690860   0.4321988  )
        82        C      tau(  82) = (   0.5236775   0.5186986   0.5250394  )
        83        C      tau(  83) = (   0.5435523   0.5401247   0.5618236  )
        84        C      tau(  84) = (   0.5598826   0.5818870   0.5474012  )
        85        H      tau(  85) = (   0.5835374   0.5783332   0.5237765  )
        86        H      tau(  86) = (   0.5736646   0.5980597   0.5734216  )
        87        H      tau(  87) = (   0.5352268   0.6009012   0.5349408  )
        88        C      tau(  88) = (   0.5102480   0.5465761   0.5945277  )
        89        H      tau(  89) = (   0.4972630   0.5173314   0.6048392  )
        90        H      tau(  90) = (   0.4854038   0.5658775   0.5828329  )
        91        H      tau(  91) = (   0.5235601   0.5619366   0.6212721  )
        92        C      tau(  92) = (   0.5785434   0.5144678   0.5794969  )
        93        H      tau(  93) = (   0.5922456   0.5306536   0.6055460  )
        94        H      tau(  94) = (   0.6026932   0.5093207   0.5567314  )
        95        H      tau(  95) = (   0.5676959   0.4846499   0.5904957  )
        96        C      tau(  96) = (   0.4542920   0.4356097   0.5061448  )
        97        C      tau(  97) = (   0.4270294   0.4062362   0.5305612  )
        98        C      tau(  98) = (   0.3828539   0.4103105   0.5148358  )
        99        H      tau(  99) = (   0.3627689   0.3900850   0.5326176  )
       100        H      tau( 100) = (   0.3805477   0.4012920   0.4825297  )
       101        H      tau( 101) = (   0.3717115   0.4417968   0.5178203  )
       102        C      tau( 102) = (   0.4291479   0.4195050   0.5757581  )
       103        H      tau( 103) = (   0.4097294   0.3992301   0.5942091  )
       104        H      tau( 104) = (   0.4182232   0.4509879   0.5797228  )
       105        H      tau( 105) = (   0.4605022   0.4173664   0.5877060  )
       106        C      tau( 106) = (   0.4418693   0.3620099   0.5261556  )
       107        H      tau( 107) = (   0.4220071   0.3417897   0.5441909  )
       108        H      tau( 108) = (   0.4733774   0.3583460   0.5370799  )
       109        H      tau( 109) = (   0.4408177   0.3518618   0.4941723  )

     number of k points=     1
                       cart. coord. in units 2pi/alat
        k(    1) = (   0.0000000   0.0000000   0.0000000), wk =   1.0000000

     Dense  grid: 12906675 G-vectors     FFT dimensions: ( 300, 300, 288)

     Estimated max dynamical RAM per process >       1.10 GB

     Estimated total dynamical RAM >     141.36 GB

     Check: negative core charge=   -0.000002
     Generating pointlists ...
     new r_m :   0.0231 (alat units)  1.4208 (a.u.) for type    1
     new r_m :   0.0122 (alat units)  0.7514 (a.u.) for type    2
     new r_m :   0.0122 (alat units)  0.7514 (a.u.) for type    3
     new r_m :   0.0138 (alat units)  0.8494 (a.u.) for type    4

     Initial potential from superposition of free atoms

     starting charge     323.9959, renormalised to     323.0000

     negative rho (up, down):  4.393E-02 4.075E-02

     STARTING HUBBARD OCCUPATIONS:

     =================== HUBBARD OCCUPATIONS ===================
     ------------------------ ATOM    1 ------------------------
     Tr[ns(  1)] (up, down, total) =   5.00000  2.00000  7.00000
     Atomic magnetic moment for atom   1 =   3.00000
     SPIN  1
     eigenvalues:
       1.000  1.000  1.000  1.000  1.000
     eigenvectors (columns):
       1.000  0.000  0.000  0.000  0.000
       0.000  1.000  0.000  0.000  0.000
       0.000  0.000  1.000  0.000  0.000
       0.000  0.000  0.000  1.000  0.000
       0.000  0.000  0.000  0.000  1.000
     occupation matrix ns (before diag.):
       1.000  0.000  0.000  0.000  0.000
       0.000  1.000  0.000  0.000  0.000
       0.000  0.000  1.000  0.000  0.000
       0.000  0.000  0.000  1.000  0.000
       0.000  0.000  0.000  0.000  1.000
     SPIN  2
     eigenvalues:
       0.400  0.400  0.400  0.400  0.400
     eigenvectors (columns):
       1.000  0.000  0.000  0.000  0.000
       0.000  1.000  0.000  0.000  0.000
       0.000  0.000  1.000  0.000  0.000
       0.000  0.000  0.000  1.000  0.000
       0.000  0.000  0.000  0.000  1.000
     occupation matrix ns (before diag.):
       0.400  0.000  0.000  0.000  0.000
       0.000  0.400  0.000  0.000  0.000
       0.000  0.000  0.400  0.000  0.000
       0.000  0.000  0.000  0.400  0.000
       0.000  0.000  0.000  0.000  0.400
     ------------------------ ATOM    2 ------------------------
     Tr[ns(  2)] (up, down, total) =   5.00000  2.00000  7.00000
     Atomic magnetic moment for atom   2 =   3.00000
     SPIN  1
     eigenvalues:
       1.000  1.000  1.000  1.000  1.000
     eigenvectors (columns):
       1.000  0.000  0.000  0.000  0.000
       0.000  1.000  0.000  0.000  0.000
       0.000  0.000  1.000  0.000  0.000
       0.000  0.000  0.000  1.000  0.000
       0.000  0.000  0.000  0.000  1.000
     occupation matrix ns (before diag.):
       1.000  0.000  0.000  0.000  0.000
       0.000  1.000  0.000  0.000  0.000
       0.000  0.000  1.000  0.000  0.000
       0.000  0.000  0.000  1.000  0.000
       0.000  0.000  0.000  0.000  1.000
     SPIN  2
     eigenvalues:
       0.400  0.400  0.400  0.400  0.400
     eigenvectors (columns):
       1.000  0.000  0.000  0.000  0.000
       0.000  1.000  0.000  0.000  0.000
       0.000  0.000  1.000  0.000  0.000
       0.000  0.000  0.000  1.000  0.000
       0.000  0.000  0.000  0.000  1.000
     occupation matrix ns (before diag.):
       0.400  0.000  0.000  0.000  0.000
       0.000  0.400  0.000  0.000  0.000
       0.000  0.000  0.400  0.000  0.000
       0.000  0.000  0.000  0.400  0.000
       0.000  0.000  0.000  0.000  0.400
     ------------------------ ATOM    3 ------------------------
     Tr[ns(  3)] (up, down, total) =   5.00000  2.00000  7.00000
     Atomic magnetic moment for atom   3 =   3.00000
     SPIN  1
     eigenvalues:
       1.000  1.000  1.000  1.000  1.000
     eigenvectors (columns):
       1.000  0.000  0.000  0.000  0.000
       0.000  1.000  0.000  0.000  0.000
       0.000  0.000  1.000  0.000  0.000
       0.000  0.000  0.000  1.000  0.000
       0.000  0.000  0.000  0.000  1.000
     occupation matrix ns (before diag.):
       1.000  0.000  0.000  0.000  0.000
       0.000  1.000  0.000  0.000  0.000
       0.000  0.000  1.000  0.000  0.000
       0.000  0.000  0.000  1.000  0.000
       0.000  0.000  0.000  0.000  1.000
     SPIN  2
     eigenvalues:
       0.400  0.400  0.400  0.400  0.400
     eigenvectors (columns):
       1.000  0.000  0.000  0.000  0.000
       0.000  1.000  0.000  0.000  0.000
       0.000  0.000  1.000  0.000  0.000
       0.000  0.000  0.000  1.000  0.000
       0.000  0.000  0.000  0.000  1.000
     occupation matrix ns (before diag.):
       0.400  0.000  0.000  0.000  0.000
       0.000  0.400  0.000  0.000  0.000
       0.000  0.000  0.400  0.000  0.000
       0.000  0.000  0.000  0.400  0.000
       0.000  0.000  0.000  0.000  0.400

     Number of occupied Hubbard levels =   21.0000

     Atomic wfc used for Hubbard projectors are orthogonalized

     Starting wfcs are  722 randomized atomic wfcs
     Checking if some PAW data can be deallocated... 

     total cpu time spent up to now is       96.5 secs

     per-process dynamical memory:   408.7 Mb

     Self-consistent Calculation

     iteration #  1     ecut=    58.80 Ry     beta= 0.30
     Davidson diagonalization with overlap
     ethr =  1.00E-02,  avg # of iterations =  2.0

     =================== HUBBARD OCCUPATIONS ===================
     ------------------------ ATOM    1 ------------------------
     Tr[ns(  1)] (up, down, total) =   3.38863  1.81177  5.20040
     Atomic magnetic moment for atom   1 =   1.57685
     SPIN  1
     eigenvalues:
       0.234  0.285  0.944  0.948  0.978
     eigenvectors (columns):
      -0.381  0.151 -0.853  0.231  0.226
       0.361  0.523 -0.331 -0.550 -0.429
       0.652 -0.583 -0.377  0.244 -0.184
       0.375  0.023 -0.039 -0.369  0.849
       0.398  0.603  0.137  0.669  0.105
     occupation matrix ns (before diag.):
       0.828  0.042  0.233  0.105  0.049
       0.042  0.679  0.036 -0.116 -0.313
       0.233  0.036  0.420 -0.171  0.047
       0.105 -0.116 -0.171  0.869 -0.113
       0.049 -0.313  0.047 -0.113  0.594
     SPIN  2
     eigenvalues:
       0.153  0.181  0.329  0.425  0.724
     eigenvectors (columns):
      -0.462 -0.212  0.055  0.677  0.529
       0.273 -0.552 -0.151  0.492 -0.596
       0.664  0.483 -0.282  0.415  0.272
       0.314 -0.000  0.941  0.129  0.012
       0.414 -0.646 -0.100 -0.332  0.539
     occupation matrix ns (before diag.):
       0.439 -0.088  0.153  0.036  0.105
      -0.088  0.434 -0.037 -0.012 -0.215
       0.153 -0.037  0.262 -0.030  0.042
       0.036 -0.012 -0.030  0.313 -0.025
       0.105 -0.215  0.042 -0.025  0.362
     ------------------------ ATOM    2 ------------------------
     Tr[ns(  2)] (up, down, total) =   3.40589  1.99281  5.39870
     Atomic magnetic moment for atom   2 =   1.41308
     SPIN  1
     eigenvalues:
       0.240  0.285  0.949  0.950  0.981
     eigenvectors (columns):
      -0.044 -0.951 -0.025  0.065  0.297
      -0.082 -0.168 -0.461  0.509 -0.703
       0.075 -0.249  0.573 -0.439 -0.642
       0.992 -0.039 -0.105  0.052  0.001
      -0.034 -0.055 -0.669 -0.736 -0.077
     occupation matrix ns (before diag.):
       0.349 -0.116 -0.161  0.006 -0.036
      -0.116  0.942 -0.009  0.053 -0.007
      -0.161 -0.009  0.917 -0.059 -0.005
       0.006  0.053 -0.059  0.250  0.023
      -0.036 -0.007 -0.005  0.023  0.947
     SPIN  2
     eigenvalues:
       0.151  0.194  0.392  0.469  0.786
     eigenvectors (columns):
      -0.141  0.930 -0.192  0.254  0.116
       0.037  0.226  0.253 -0.198 -0.919
      -0.110  0.243  0.600 -0.661  0.363
      -0.975 -0.156  0.064  0.116 -0.085
       0.125 -0.019  0.731  0.668  0.058
     occupation matrix ns (before diag.):
       0.226 -0.086 -0.045 -0.006  0.023
      -0.086  0.717 -0.131  0.044 -0.031
      -0.045 -0.131  0.463 -0.036 -0.022
      -0.006  0.044 -0.036  0.162  0.033
       0.023 -0.031 -0.022  0.033  0.424
     ------------------------ ATOM    3 ------------------------
     Tr[ns(  3)] (up, down, total) =   3.31900  1.16024  4.47924
     Atomic magnetic moment for atom   3 =   2.15875
     SPIN  1
     eigenvalues:
       0.232  0.249  0.921  0.943  0.974
     eigenvectors (columns):
       0.031  0.139 -0.762 -0.632  0.014
      -0.565 -0.601 -0.383  0.295 -0.293
      -0.667  0.498  0.285 -0.275 -0.388
       0.469 -0.184  0.111 -0.170 -0.840
       0.128  0.581 -0.424  0.639 -0.241
     occupation matrix ns (before diag.):
       0.916  0.064 -0.029  0.009 -0.066
       0.064  0.465 -0.054  0.120  0.293
      -0.029 -0.054  0.458  0.295 -0.134
       0.009  0.120  0.295  0.785  0.039
      -0.066  0.293 -0.134  0.039  0.695
     SPIN  2
     eigenvalues:
       0.141  0.159  0.176  0.268  0.417
     eigenvectors (columns):
       0.215 -0.163  0.105 -0.884  0.367
       0.116  0.754 -0.371  0.064  0.526
       0.460  0.485  0.672 -0.030 -0.318
      -0.826  0.377  0.194 -0.323 -0.182
      -0.213 -0.169  0.602  0.330  0.674
     occupation matrix ns (before diag.):
       0.278  0.043 -0.028  0.018  0.034
       0.043  0.233 -0.049 -0.027  0.090
      -0.028 -0.049  0.189  0.025 -0.048
       0.018 -0.027  0.025  0.167 -0.044
       0.034  0.090 -0.048 -0.044  0.293

     Number of occupied Hubbard levels =   15.0783

     negative rho (up, down):  4.595E-02 4.220E-02

     total cpu time spent up to now is      126.6 secs

     total energy              =   -2274.06389184 Ry
     estimated scf accuracy    <      20.96917504 Ry

     total magnetization       =     3.00 Bohr mag/cell
     absolute magnetization    =     7.66 Bohr mag/cell

     iteration #  2     ecut=    58.80 Ry     beta= 0.30
     Davidson diagonalization with overlap
     ethr =  6.49E-03,  avg # of iterations =  3.5

     negative rho (up, down):  4.704E-02 4.325E-02

     total cpu time spent up to now is      160.3 secs

     total energy              =   -2273.29195673 Ry
     estimated scf accuracy    <      25.30442097 Ry

     total magnetization       =     3.00 Bohr mag/cell
     absolute magnetization    =     3.75 Bohr mag/cell

     iteration #  3     ecut=    58.80 Ry     beta= 0.30
     Davidson diagonalization with overlap
     ethr =  6.49E-03,  avg # of iterations =  4.5

     negative rho (up, down):  4.779E-02 4.403E-02

     total cpu time spent up to now is      186.9 secs

     total energy              =   -2275.96769362 Ry
     estimated scf accuracy    <      18.18922886 Ry

     total magnetization       =     3.00 Bohr mag/cell
     absolute magnetization    =     4.26 Bohr mag/cell

     iteration #  4     ecut=    58.80 Ry     beta= 0.30
     Davidson diagonalization with overlap
     ethr =  5.63E-03,  avg # of iterations =  6.0

     negative rho (up, down):  4.877E-02 4.507E-02

     total cpu time spent up to now is      213.3 secs

     total energy              =   -2276.89387644 Ry
     estimated scf accuracy    <      26.45412762 Ry

     total magnetization       =     3.00 Bohr mag/cell
     absolute magnetization    =     3.70 Bohr mag/cell

     iteration #  5     ecut=    58.80 Ry     beta= 0.30
     Davidson diagonalization with overlap
     ethr =  5.63E-03,  avg # of iterations =  3.0

     negative rho (up, down):  4.919E-02 4.534E-02

     total cpu time spent up to now is      236.7 secs

     total energy              =   -2277.50685226 Ry
     estimated scf accuracy    <       4.81072205 Ry

     total magnetization       =     3.00 Bohr mag/cell
     absolute magnetization    =     4.27 Bohr mag/cell

     iteration #  6     ecut=    58.80 Ry     beta= 0.30
     Davidson diagonalization with overlap
     ethr =  1.49E-03,  avg # of iterations =  4.0

     negative rho (up, down):  4.969E-02 4.569E-02

     total cpu time spent up to now is      261.6 secs

     total energy              =   -2277.76930604 Ry
     estimated scf accuracy    <       5.45464992 Ry

     total magnetization       =     3.00 Bohr mag/cell
     absolute magnetization    =     3.82 Bohr mag/cell

     iteration #  7     ecut=    58.80 Ry     beta= 0.30
     Davidson diagonalization with overlap
     ethr =  1.49E-03,  avg # of iterations =  4.0

     negative rho (up, down):  5.054E-02 4.641E-02

     total cpu time spent up to now is      285.8 secs

     total energy              =   -2277.98812511 Ry
     estimated scf accuracy    <       1.27164374 Ry

     total magnetization       =     3.00 Bohr mag/cell
     absolute magnetization    =     3.75 Bohr mag/cell

     iteration #  8     ecut=    58.80 Ry     beta= 0.30
     Davidson diagonalization with overlap
     ethr =  3.94E-04,  avg # of iterations =  3.0

     negative rho (up, down):  5.160E-02 4.737E-02

     total cpu time spent up to now is      309.2 secs

     total energy              =   -2278.03235088 Ry
     estimated scf accuracy    <       0.77254591 Ry

     total magnetization       =     3.00 Bohr mag/cell
     absolute magnetization    =     3.74 Bohr mag/cell

     iteration #  9     ecut=    58.80 Ry     beta= 0.30
     Davidson diagonalization with overlap
     ethr =  2.39E-04,  avg # of iterations =  2.0

     negative rho (up, down):  5.201E-02 4.778E-02

     total cpu time spent up to now is      332.0 secs

     total energy              =   -2278.06073707 Ry
     estimated scf accuracy    <       0.27802337 Ry

     total magnetization       =     3.00 Bohr mag/cell
     absolute magnetization    =     3.68 Bohr mag/cell

     iteration # 10     ecut=    58.80 Ry     beta= 0.30
     Davidson diagonalization with overlap
     ethr =  8.61E-05,  avg # of iterations =  3.0

     negative rho (up, down):  5.202E-02 4.779E-02

     total cpu time spent up to now is      355.8 secs

     total energy              =   -2278.07587018 Ry
     estimated scf accuracy    <       0.10061838 Ry

     total magnetization       =     3.00 Bohr mag/cell
     absolute magnetization    =     3.60 Bohr mag/cell

     iteration # 11     ecut=    58.80 Ry     beta= 0.30
     Davidson diagonalization with overlap
     ethr =  3.12E-05,  avg # of iterations =  1.0

     negative rho (up, down):  5.190E-02 4.769E-02

     total cpu time spent up to now is      377.8 secs

     total energy              =   -2278.07910191 Ry
     estimated scf accuracy    <       0.09661962 Ry

     total magnetization       =     3.00 Bohr mag/cell
     absolute magnetization    =     3.60 Bohr mag/cell

     iteration # 12     ecut=    58.80 Ry     beta= 0.30
     Davidson diagonalization with overlap
     ethr =  2.99E-05,  avg # of iterations =  1.0

     negative rho (up, down):  5.192E-02 4.770E-02

     total cpu time spent up to now is      399.8 secs

     total energy              =   -2278.07924730 Ry
     estimated scf accuracy    <       0.08913777 Ry

     total magnetization       =     3.00 Bohr mag/cell
     absolute magnetization    =     3.60 Bohr mag/cell

     iteration # 13     ecut=    58.80 Ry     beta= 0.30
     Davidson diagonalization with overlap
     ethr =  2.76E-05,  avg # of iterations =  1.0

     negative rho (up, down):  5.214E-02 4.789E-02

     total cpu time spent up to now is      421.9 secs

     total energy              =   -2278.07184557 Ry
     estimated scf accuracy    <       0.08956063 Ry

     total magnetization       =     3.00 Bohr mag/cell
     absolute magnetization    =     3.60 Bohr mag/cell

     iteration # 14     ecut=    58.80 Ry     beta= 0.30
     Davidson diagonalization with overlap
     ethr =  2.76E-05,  avg # of iterations =  2.0

     negative rho (up, down):  5.251E-02 4.839E-02

     total cpu time spent up to now is      444.7 secs

     total energy              =   -2278.08751535 Ry
     estimated scf accuracy    <       0.23719907 Ry

     total magnetization       =     3.00 Bohr mag/cell
     absolute magnetization    =     3.55 Bohr mag/cell

     iteration # 15     ecut=    58.80 Ry     beta= 0.30
     Davidson diagonalization with overlap
     ethr =  2.76E-05,  avg # of iterations =  3.5

     negative rho (up, down):  5.263E-02 4.856E-02

     total cpu time spent up to now is      469.3 secs

     total energy              =   -2278.12844808 Ry
     estimated scf accuracy    <       0.04012997 Ry

     total magnetization       =     3.00 Bohr mag/cell
     absolute magnetization    =     3.54 Bohr mag/cell

     iteration # 16     ecut=    58.80 Ry     beta= 0.30
     Davidson diagonalization with overlap
     ethr =  1.24E-05,  avg # of iterations =  3.0

     negative rho (up, down):  5.265E-02 4.867E-02

     total cpu time spent up to now is      492.9 secs

     total energy              =   -2278.13998887 Ry
     estimated scf accuracy    <       0.04853002 Ry

     total magnetization       =     3.00 Bohr mag/cell
     absolute magnetization    =     3.52 Bohr mag/cell

     iteration # 17     ecut=    58.80 Ry     beta= 0.30
     Davidson diagonalization with overlap
     ethr =  1.24E-05,  avg # of iterations =  3.5

     negative rho (up, down):  5.271E-02 4.877E-02

     total cpu time spent up to now is      517.0 secs

     total energy              =   -2278.14457493 Ry
     estimated scf accuracy    <       0.07005605 Ry

     total magnetization       =     3.00 Bohr mag/cell
     absolute magnetization    =     3.51 Bohr mag/cell

     iteration # 18     ecut=    58.80 Ry     beta= 0.30
     Davidson diagonalization with overlap
     ethr =  1.24E-05,  avg # of iterations =  2.0

     negative rho (up, down):  5.276E-02 4.884E-02

     total cpu time spent up to now is      539.8 secs

     total energy              =   -2278.14647710 Ry
     estimated scf accuracy    <       0.07510083 Ry

     total magnetization       =     3.00 Bohr mag/cell
     absolute magnetization    =     3.49 Bohr mag/cell

     iteration # 19     ecut=    58.80 Ry     beta= 0.30
     Davidson diagonalization with overlap
     ethr =  1.24E-05,  avg # of iterations =  1.5

     negative rho (up, down):  5.272E-02 4.891E-02

     total cpu time spent up to now is      562.4 secs

     total energy              =   -2278.14758101 Ry
     estimated scf accuracy    <       0.06878232 Ry

     total magnetization       =     3.00 Bohr mag/cell
     absolute magnetization    =     3.49 Bohr mag/cell

     iteration # 20     ecut=    58.80 Ry     beta= 0.30
     Davidson diagonalization with overlap
     ethr =  1.24E-05,  avg # of iterations =  3.5

     negative rho (up, down):  5.264E-02 4.893E-02

     total cpu time spent up to now is      586.2 secs

     total energy              =   -2278.15599886 Ry
     estimated scf accuracy    <       0.03617935 Ry

     total magnetization       =     3.00 Bohr mag/cell
     absolute magnetization    =     3.49 Bohr mag/cell

     iteration # 21     ecut=    58.80 Ry     beta= 0.30
     Davidson diagonalization with overlap
     ethr =  1.12E-05,  avg # of iterations =  3.0

     negative rho (up, down):  5.251E-02 4.893E-02

     total cpu time spent up to now is      609.8 secs

     total energy              =   -2278.16246240 Ry
     estimated scf accuracy    <       0.01705107 Ry

     total magnetization       =     3.00 Bohr mag/cell
     absolute magnetization    =     3.49 Bohr mag/cell

     iteration # 22     ecut=    58.80 Ry     beta= 0.30
     Davidson diagonalization with overlap
     ethr =  5.28E-06,  avg # of iterations =  3.5

     negative rho (up, down):  5.251E-02 4.902E-02

     total cpu time spent up to now is      635.6 secs

     total energy              =   -2278.16718475 Ry
     estimated scf accuracy    <       0.00489863 Ry

     total magnetization       =     3.00 Bohr mag/cell
     absolute magnetization    =     3.51 Bohr mag/cell

     iteration # 23     ecut=    58.80 Ry     beta= 0.30
     Davidson diagonalization with overlap
     ethr =  1.52E-06,  avg # of iterations =  3.5

     negative rho (up, down):  5.252E-02 4.912E-02

     total cpu time spent up to now is      659.7 secs

     total energy              =   -2278.16878901 Ry
     estimated scf accuracy    <       0.00298777 Ry

     total magnetization       =     3.00 Bohr mag/cell
     absolute magnetization    =     3.53 Bohr mag/cell

     iteration # 24     ecut=    58.80 Ry     beta= 0.30
     Davidson diagonalization with overlap
     ethr =  9.25E-07,  avg # of iterations =  6.5

     negative rho (up, down):  5.255E-02 4.917E-02

     total cpu time spent up to now is      689.7 secs

     total energy              =   -2278.17005294 Ry
     estimated scf accuracy    <       0.00088438 Ry

     total magnetization       =     3.00 Bohr mag/cell
     absolute magnetization    =     3.57 Bohr mag/cell

     iteration # 25     ecut=    58.80 Ry     beta= 0.30
     Davidson diagonalization with overlap
     ethr =  2.74E-07,  avg # of iterations =  5.5

     negative rho (up, down):  5.258E-02 4.921E-02

     total cpu time spent up to now is      715.7 secs

     total energy              =   -2278.17043776 Ry
     estimated scf accuracy    <       0.00067181 Ry

     total magnetization       =     3.00 Bohr mag/cell
     absolute magnetization    =     3.57 Bohr mag/cell

     iteration # 26     ecut=    58.80 Ry     beta= 0.30
     Davidson diagonalization with overlap
     ethr =  2.08E-07,  avg # of iterations =  6.0

     negative rho (up, down):  5.260E-02 4.923E-02

     total cpu time spent up to now is      742.6 secs

     total energy              =   -2278.17079930 Ry
     estimated scf accuracy    <       0.00049685 Ry

     total magnetization       =     3.00 Bohr mag/cell
     absolute magnetization    =     3.59 Bohr mag/cell

     iteration # 27     ecut=    58.80 Ry     beta= 0.30
     Davidson diagonalization with overlap
     ethr =  1.54E-07,  avg # of iterations =  3.5

     negative rho (up, down):  5.261E-02 4.925E-02

     total cpu time spent up to now is      767.0 secs

     total energy              =   -2278.17117484 Ry
     estimated scf accuracy    <       0.00041778 Ry

     total magnetization       =     3.00 Bohr mag/cell
     absolute magnetization    =     3.60 Bohr mag/cell

     iteration # 28     ecut=    58.80 Ry     beta= 0.30
     Davidson diagonalization with overlap
     ethr =  1.29E-07,  avg # of iterations =  4.5

     negative rho (up, down):  5.260E-02 4.924E-02

     total cpu time spent up to now is      796.2 secs

     total energy              =   -2278.17183604 Ry
     estimated scf accuracy    <       0.00036128 Ry

     total magnetization       =     3.00 Bohr mag/cell
     absolute magnetization    =     3.61 Bohr mag/cell

     iteration # 29     ecut=    58.80 Ry     beta= 0.30
     Davidson diagonalization with overlap
     ethr =  1.12E-07,  avg # of iterations =  4.0

     negative rho (up, down):  5.258E-02 4.923E-02

     total cpu time spent up to now is      821.6 secs

     total energy              =   -2278.17230585 Ry
     estimated scf accuracy    <       0.00032864 Ry

     total magnetization       =     3.00 Bohr mag/cell
     absolute magnetization    =     3.62 Bohr mag/cell

     iteration # 30     ecut=    58.80 Ry     beta= 0.30
     Davidson diagonalization with overlap
     ethr =  1.02E-07,  avg # of iterations =  4.5

     negative rho (up, down):  5.258E-02 4.923E-02

     total cpu time spent up to now is      848.5 secs

     total energy              =   -2278.17270957 Ry
     estimated scf accuracy    <       0.00032232 Ry

     total magnetization       =     3.00 Bohr mag/cell
     absolute magnetization    =     3.63 Bohr mag/cell

     iteration # 31     ecut=    58.80 Ry     beta= 0.30
     Davidson diagonalization with overlap
     ethr =  9.98E-08,  avg # of iterations =  2.0

     negative rho (up, down):  5.258E-02 4.923E-02

     total cpu time spent up to now is      871.4 secs

     total energy              =   -2278.17291874 Ry
     estimated scf accuracy    <       0.00032027 Ry

     total magnetization       =     3.00 Bohr mag/cell
     absolute magnetization    =     3.63 Bohr mag/cell

     iteration # 32     ecut=    58.80 Ry     beta= 0.30
     Davidson diagonalization with overlap
     ethr =  9.92E-08,  avg # of iterations =  2.5

     negative rho (up, down):  5.258E-02 4.923E-02

     total cpu time spent up to now is      894.8 secs

     total energy              =   -2278.17309364 Ry
     estimated scf accuracy    <       0.00031995 Ry

     total magnetization       =     3.00 Bohr mag/cell
     absolute magnetization    =     3.63 Bohr mag/cell

     iteration # 33     ecut=    58.80 Ry     beta= 0.30
     Davidson diagonalization with overlap
     ethr =  9.91E-08,  avg # of iterations =  2.5

     negative rho (up, down):  5.258E-02 4.923E-02

     total cpu time spent up to now is      917.9 secs

     total energy              =   -2278.17330626 Ry
     estimated scf accuracy    <       0.00031991 Ry

     total magnetization       =     3.00 Bohr mag/cell
     absolute magnetization    =     3.63 Bohr mag/cell

     iteration # 34     ecut=    58.80 Ry     beta= 0.30
     Davidson diagonalization with overlap
     ethr =  9.90E-08,  avg # of iterations =  3.5

     negative rho (up, down):  5.258E-02 4.923E-02

     total cpu time spent up to now is      941.9 secs

     total energy              =   -2278.17255602 Ry
     estimated scf accuracy    <       0.00032349 Ry

     total magnetization       =     3.00 Bohr mag/cell
     absolute magnetization    =     3.63 Bohr mag/cell

     iteration # 35     ecut=    58.80 Ry     beta= 0.30
     Davidson diagonalization with overlap
     ethr =  9.90E-08,  avg # of iterations =  4.0

     negative rho (up, down):  5.257E-02 4.924E-02

     total cpu time spent up to now is      967.0 secs

     total energy              =   -2278.17035536 Ry
     estimated scf accuracy    <       0.00031620 Ry

     total magnetization       =     3.00 Bohr mag/cell
     absolute magnetization    =     3.63 Bohr mag/cell

     iteration # 36     ecut=    58.80 Ry     beta= 0.30
     Davidson diagonalization with overlap
     ethr =  9.79E-08,  avg # of iterations =  4.5

     negative rho (up, down):  5.257E-02 4.924E-02

     total cpu time spent up to now is      997.3 secs

     total energy              =   -2278.17145258 Ry
     estimated scf accuracy    <       0.00032252 Ry

     total magnetization       =     3.00 Bohr mag/cell
     absolute magnetization    =     3.63 Bohr mag/cell

     iteration # 37     ecut=    58.80 Ry     beta= 0.30
     Davidson diagonalization with overlap
     ethr =  9.79E-08,  avg # of iterations =  2.0

     negative rho (up, down):  5.257E-02 4.924E-02

     total cpu time spent up to now is     1020.3 secs

     total energy              =   -2278.17130368 Ry
     estimated scf accuracy    <       0.00032844 Ry

     total magnetization       =     3.00 Bohr mag/cell
     absolute magnetization    =     3.62 Bohr mag/cell

     iteration # 38     ecut=    58.80 Ry     beta= 0.30
     Davidson diagonalization with overlap
     ethr =  9.79E-08,  avg # of iterations =  2.5

     negative rho (up, down):  5.257E-02 4.924E-02

     total cpu time spent up to now is     1043.3 secs

     total energy              =   -2278.17150912 Ry
     estimated scf accuracy    <       0.00032671 Ry

     total magnetization       =     3.00 Bohr mag/cell
     absolute magnetization    =     3.62 Bohr mag/cell

     iteration # 39     ecut=    58.80 Ry     beta= 0.30
     Davidson diagonalization with overlap
     ethr =  9.79E-08,  avg # of iterations =  2.5

     negative rho (up, down):  5.256E-02 4.923E-02

     total cpu time spent up to now is     1066.5 secs

     total energy              =   -2278.17179668 Ry
     estimated scf accuracy    <       0.00031686 Ry

     total magnetization       =     3.00 Bohr mag/cell
     absolute magnetization    =     3.63 Bohr mag/cell

     iteration # 40     ecut=    58.80 Ry     beta= 0.30
     Davidson diagonalization with overlap
     ethr =  9.79E-08,  avg # of iterations =  3.5

     negative rho (up, down):  5.255E-02 4.922E-02

     total cpu time spent up to now is     1090.8 secs

     total energy              =   -2278.17193240 Ry
     estimated scf accuracy    <       0.00031065 Ry

     total magnetization       =     3.00 Bohr mag/cell
     absolute magnetization    =     3.63 Bohr mag/cell

     iteration # 41     ecut=    58.80 Ry     beta= 0.30
     Davidson diagonalization with overlap
     ethr =  9.62E-08,  avg # of iterations =  3.0

     negative rho (up, down):  5.255E-02 4.921E-02

     total cpu time spent up to now is     1114.3 secs

     total energy              =   -2278.17157118 Ry
     estimated scf accuracy    <       0.00030233 Ry

     total magnetization       =     3.00 Bohr mag/cell
     absolute magnetization    =     3.63 Bohr mag/cell

     iteration # 42     ecut=    58.80 Ry     beta= 0.30
     Davidson diagonalization with overlap
     ethr =  9.36E-08,  avg # of iterations =  3.0

     negative rho (up, down):  5.255E-02 4.922E-02

     total cpu time spent up to now is     1138.0 secs

     total energy              =   -2278.17106655 Ry
     estimated scf accuracy    <       0.00029065 Ry

     total magnetization       =     3.00 Bohr mag/cell
     absolute magnetization    =     3.63 Bohr mag/cell

     iteration # 43     ecut=    58.80 Ry     beta= 0.30
     Davidson diagonalization with overlap
     ethr =  9.00E-08,  avg # of iterations =  4.0

     negative rho (up, down):  5.255E-02 4.921E-02

     total cpu time spent up to now is     1163.0 secs

     total energy              =   -2278.17141608 Ry
     estimated scf accuracy    <       0.00028477 Ry

     total magnetization       =     3.00 Bohr mag/cell
     absolute magnetization    =     3.63 Bohr mag/cell

     iteration # 44     ecut=    58.80 Ry     beta= 0.30
     Davidson diagonalization with overlap
     ethr =  8.82E-08,  avg # of iterations =  4.0

     negative rho (up, down):  5.256E-02 4.922E-02

     total cpu time spent up to now is     1189.5 secs

     total energy              =   -2278.17059452 Ry
     estimated scf accuracy    <       0.00025459 Ry

     total magnetization       =     3.00 Bohr mag/cell
     absolute magnetization    =     3.64 Bohr mag/cell

     iteration # 45     ecut=    58.80 Ry     beta= 0.30
     Davidson diagonalization with overlap
     ethr =  7.88E-08,  avg # of iterations =  4.5

     negative rho (up, down):  5.256E-02 4.923E-02

     total cpu time spent up to now is     1223.3 secs

     total energy              =   -2278.17087635 Ry
     estimated scf accuracy    <       0.00023456 Ry

     total magnetization       =     3.00 Bohr mag/cell
     absolute magnetization    =     3.64 Bohr mag/cell

     iteration # 46     ecut=    58.80 Ry     beta= 0.30
     Davidson diagonalization with overlap
     ethr =  7.26E-08,  avg # of iterations =  4.5

     negative rho (up, down):  5.256E-02 4.926E-02

     total cpu time spent up to now is     1254.1 secs

     total energy              =   -2278.16955407 Ry
     estimated scf accuracy    <       0.00019921 Ry

     total magnetization       =     3.00 Bohr mag/cell
     absolute magnetization    =     3.64 Bohr mag/cell

     iteration # 47     ecut=    58.80 Ry     beta= 0.30
     Davidson diagonalization with overlap
     ethr =  6.17E-08,  avg # of iterations =  4.5

     negative rho (up, down):  5.256E-02 4.925E-02

     total cpu time spent up to now is     1289.3 secs

     total energy              =   -2278.17109328 Ry
     estimated scf accuracy    <       0.00019301 Ry

     total magnetization       =     3.00 Bohr mag/cell
     absolute magnetization    =     3.65 Bohr mag/cell

     iteration # 48     ecut=    58.80 Ry     beta= 0.30
     Davidson diagonalization with overlap
     ethr =  5.98E-08,  avg # of iterations =  3.0

     negative rho (up, down):  5.256E-02 4.924E-02

     total cpu time spent up to now is     1313.2 secs

     total energy              =   -2278.17131201 Ry
     estimated scf accuracy    <       0.00017400 Ry

     total magnetization       =     3.00 Bohr mag/cell
     absolute magnetization    =     3.65 Bohr mag/cell

     iteration # 49     ecut=    58.80 Ry     beta= 0.30
     Davidson diagonalization with overlap
     ethr =  5.39E-08,  avg # of iterations =  4.0

     negative rho (up, down):  5.255E-02 4.925E-02

     total cpu time spent up to now is     1338.2 secs

     total energy              =   -2278.17117276 Ry
     estimated scf accuracy    <       0.00016957 Ry

     total magnetization       =     3.00 Bohr mag/cell
     absolute magnetization    =     3.64 Bohr mag/cell

     iteration # 50     ecut=    58.80 Ry     beta= 0.30
     Davidson diagonalization with overlap
     ethr =  5.25E-08,  avg # of iterations =  4.5

     negative rho (up, down):  5.256E-02 4.926E-02

     total cpu time spent up to now is     1367.7 secs

     total energy              =   -2278.17120931 Ry
     estimated scf accuracy    <       0.00018411 Ry

     total magnetization       =     3.00 Bohr mag/cell
     absolute magnetization    =     3.65 Bohr mag/cell

     iteration # 51     ecut=    58.80 Ry     beta= 0.30
     Davidson diagonalization with overlap
     ethr =  5.25E-08,  avg # of iterations =  4.0

     negative rho (up, down):  5.256E-02 4.925E-02

     total cpu time spent up to now is     1392.1 secs

     total energy              =   -2278.17116394 Ry
     estimated scf accuracy    <       0.00018793 Ry

     total magnetization       =     3.00 Bohr mag/cell
     absolute magnetization    =     3.65 Bohr mag/cell

     iteration # 52     ecut=    58.80 Ry     beta= 0.30
     Davidson diagonalization with overlap
     ethr =  5.25E-08,  avg # of iterations =  4.5

     negative rho (up, down):  5.256E-02 4.925E-02

     total cpu time spent up to now is     1420.6 secs

     total energy              =   -2278.17143246 Ry
     estimated scf accuracy    <       0.00016686 Ry

     total magnetization       =     3.00 Bohr mag/cell
     absolute magnetization    =     3.64 Bohr mag/cell

     iteration # 53     ecut=    58.80 Ry     beta= 0.30
     Davidson diagonalization with overlap
     ethr =  5.17E-08,  avg # of iterations =  3.0

     negative rho (up, down):  5.256E-02 4.924E-02

     total cpu time spent up to now is     1444.7 secs

     total energy              =   -2278.17138007 Ry
     estimated scf accuracy    <       0.00016556 Ry

     total magnetization       =     3.00 Bohr mag/cell
     absolute magnetization    =     3.64 Bohr mag/cell

     iteration # 54     ecut=    58.80 Ry     beta= 0.30
     Davidson diagonalization with overlap
     ethr =  5.13E-08,  avg # of iterations =  3.5

     negative rho (up, down):  5.256E-02 4.923E-02

     total cpu time spent up to now is     1470.5 secs

     total energy              =   -2278.17152105 Ry
     estimated scf accuracy    <       0.00015856 Ry

     total magnetization       =     3.00 Bohr mag/cell
     absolute magnetization    =     3.64 Bohr mag/cell

     iteration # 55     ecut=    58.80 Ry     beta= 0.30
     Davidson diagonalization with overlap
     ethr =  4.91E-08,  avg # of iterations =  3.0

     negative rho (up, down):  5.256E-02 4.923E-02

     total cpu time spent up to now is     1494.0 secs

     total energy              =   -2278.17134284 Ry
     estimated scf accuracy    <       0.00015088 Ry

     total magnetization       =     3.00 Bohr mag/cell
     absolute magnetization    =     3.64 Bohr mag/cell

     iteration # 56     ecut=    58.80 Ry     beta= 0.30
     Davidson diagonalization with overlap
     ethr =  4.67E-08,  avg # of iterations =  4.0

     negative rho (up, down):  5.257E-02 4.923E-02

     total cpu time spent up to now is     1520.3 secs

     total energy              =   -2278.17100137 Ry
     estimated scf accuracy    <       0.00013639 Ry

     total magnetization       =     3.00 Bohr mag/cell
     absolute magnetization    =     3.63 Bohr mag/cell

     iteration # 57     ecut=    58.80 Ry     beta= 0.30
     Davidson diagonalization with overlap
     ethr =  4.22E-08,  avg # of iterations =  4.5

     negative rho (up, down):  5.258E-02 4.924E-02

     total cpu time spent up to now is     1549.6 secs

     total energy              =   -2278.17012771 Ry
     estimated scf accuracy    <       0.00012052 Ry

     total magnetization       =     3.00 Bohr mag/cell
     absolute magnetization    =     3.63 Bohr mag/cell

     iteration # 58     ecut=    58.80 Ry     beta= 0.30
     Davidson diagonalization with overlap
     ethr =  3.73E-08,  avg # of iterations =  5.0

     negative rho (up, down):  5.258E-02 4.923E-02

     total cpu time spent up to now is     1584.1 secs

     total energy              =   -2278.17055011 Ry
     estimated scf accuracy    <       0.00011453 Ry

     total magnetization       =     3.00 Bohr mag/cell
     absolute magnetization    =     3.62 Bohr mag/cell

     iteration # 59     ecut=    58.80 Ry     beta= 0.30
     Davidson diagonalization with overlap
     ethr =  3.55E-08,  avg # of iterations =  4.5

     negative rho (up, down):  5.258E-02 4.923E-02

     total cpu time spent up to now is     1610.7 secs

     total energy              =   -2278.17000148 Ry
     estimated scf accuracy    <       0.00009684 Ry

     total magnetization       =     3.00 Bohr mag/cell
     absolute magnetization    =     3.62 Bohr mag/cell

     iteration # 60     ecut=    58.80 Ry     beta= 0.30
     Davidson diagonalization with overlap
     ethr =  3.00E-08,  avg # of iterations =  4.5

     negative rho (up, down):  5.257E-02 4.924E-02

     total cpu time spent up to now is     1643.4 secs

     total energy              =   -2278.16889551 Ry
     estimated scf accuracy    <       0.00008895 Ry

     total magnetization       =     3.00 Bohr mag/cell
     absolute magnetization    =     3.62 Bohr mag/cell

     iteration # 61     ecut=    58.80 Ry     beta= 0.30
     Davidson diagonalization with overlap
     ethr =  2.75E-08,  avg # of iterations =  5.5

     negative rho (up, down):  5.256E-02 4.923E-02

     total cpu time spent up to now is     1682.6 secs

     total energy              =   -2278.16983264 Ry
     estimated scf accuracy    <       0.00008554 Ry

     total magnetization       =     3.00 Bohr mag/cell
     absolute magnetization    =     3.63 Bohr mag/cell

     iteration # 62     ecut=    58.80 Ry     beta= 0.30
     Davidson diagonalization with overlap
     ethr =  2.65E-08,  avg # of iterations =  4.5

     negative rho (up, down):  5.256E-02 4.922E-02

     total cpu time spent up to now is     1715.8 secs

     total energy              =   -2278.17026776 Ry
     estimated scf accuracy    <       0.00006894 Ry

     total magnetization       =     3.00 Bohr mag/cell
     absolute magnetization    =     3.63 Bohr mag/cell

     iteration # 63     ecut=    58.80 Ry     beta= 0.30
     Davidson diagonalization with overlap
     ethr =  2.13E-08,  avg # of iterations =  3.0

     negative rho (up, down):  5.256E-02 4.922E-02

     total cpu time spent up to now is     1739.5 secs

     total energy              =   -2278.17030570 Ry
     estimated scf accuracy    <       0.00004535 Ry

     total magnetization       =     3.00 Bohr mag/cell
     absolute magnetization    =     3.63 Bohr mag/cell

     iteration # 64     ecut=    58.80 Ry     beta= 0.30
     Davidson diagonalization with overlap
     ethr =  1.40E-08,  avg # of iterations =  4.0

     negative rho (up, down):  5.257E-02 4.923E-02

     total cpu time spent up to now is     1767.4 secs

     total energy              =   -2278.17029646 Ry
     estimated scf accuracy    <       0.00003274 Ry

     total magnetization       =     3.00 Bohr mag/cell
     absolute magnetization    =     3.63 Bohr mag/cell

     iteration # 65     ecut=    58.80 Ry     beta= 0.30
     Davidson diagonalization with overlap
     ethr =  1.01E-08,  avg # of iterations =  4.5

     negative rho (up, down):  5.257E-02 4.924E-02

     total cpu time spent up to now is     1801.8 secs

     total energy              =   -2278.17025291 Ry
     estimated scf accuracy    <       0.00003404 Ry

     total magnetization       =     3.00 Bohr mag/cell
     absolute magnetization    =     3.64 Bohr mag/cell

     iteration # 66     ecut=    58.80 Ry     beta= 0.30
     Davidson diagonalization with overlap
     ethr =  1.01E-08,  avg # of iterations =  5.0

     negative rho (up, down):  5.257E-02 4.924E-02

     total cpu time spent up to now is     1836.0 secs

     total energy              =   -2278.17032997 Ry
     estimated scf accuracy    <       0.00003329 Ry

     total magnetization       =     3.00 Bohr mag/cell
     absolute magnetization    =     3.64 Bohr mag/cell

     iteration # 67     ecut=    58.80 Ry     beta= 0.30
     Davidson diagonalization with overlap
     ethr =  1.01E-08,  avg # of iterations =  4.5

     negative rho (up, down):  5.257E-02 4.923E-02

     total cpu time spent up to now is     1869.7 secs

     total energy              =   -2278.17049761 Ry
     estimated scf accuracy    <       0.00002203 Ry

     total magnetization       =     3.00 Bohr mag/cell
     absolute magnetization    =     3.65 Bohr mag/cell

     iteration # 68     ecut=    58.80 Ry     beta= 0.30
     Davidson diagonalization with overlap
     ethr =  6.82E-09,  avg # of iterations =  4.0

     negative rho (up, down):  5.257E-02 4.924E-02

     total cpu time spent up to now is     1896.4 secs

     total energy              =   -2278.17051486 Ry
     estimated scf accuracy    <       0.00001982 Ry

     total magnetization       =     3.00 Bohr mag/cell
     absolute magnetization    =     3.65 Bohr mag/cell

     iteration # 69     ecut=    58.80 Ry     beta= 0.30
     Davidson diagonalization with overlap
     ethr =  6.14E-09,  avg # of iterations =  4.5

     negative rho (up, down):  5.256E-02 4.924E-02

     total cpu time spent up to now is     1928.5 secs

     total energy              =   -2278.17052655 Ry
     estimated scf accuracy    <       0.00001837 Ry

     total magnetization       =     3.00 Bohr mag/cell
     absolute magnetization    =     3.65 Bohr mag/cell

     iteration # 70     ecut=    58.80 Ry     beta= 0.30
     Davidson diagonalization with overlap
     ethr =  5.69E-09,  avg # of iterations =  5.0

     negative rho (up, down):  5.256E-02 4.925E-02

     total cpu time spent up to now is     1964.1 secs

     total energy              =   -2278.17056164 Ry
     estimated scf accuracy    <       0.00001722 Ry

     total magnetization       =     3.00 Bohr mag/cell
     absolute magnetization    =     3.65 Bohr mag/cell

     iteration # 71     ecut=    58.80 Ry     beta= 0.30
     Davidson diagonalization with overlap
     ethr =  5.33E-09,  avg # of iterations =  5.0

     negative rho (up, down):  5.256E-02 4.925E-02

     total cpu time spent up to now is     2002.1 secs

     total energy              =   -2278.17071798 Ry
     estimated scf accuracy    <       0.00001612 Ry

     total magnetization       =     3.00 Bohr mag/cell
     absolute magnetization    =     3.66 Bohr mag/cell

     iteration # 72     ecut=    58.80 Ry     beta= 0.30
     Davidson diagonalization with overlap
     ethr =  4.99E-09,  avg # of iterations =  4.5

     negative rho (up, down):  5.256E-02 4.925E-02

     total cpu time spent up to now is     2031.4 secs

     total energy              =   -2278.17076777 Ry
     estimated scf accuracy    <       0.00001567 Ry

     total magnetization       =     3.00 Bohr mag/cell
     absolute magnetization    =     3.66 Bohr mag/cell

     iteration # 73     ecut=    58.80 Ry     beta= 0.30
     Davidson diagonalization with overlap
     ethr =  4.85E-09,  avg # of iterations =  4.0

     negative rho (up, down):  5.256E-02 4.925E-02

     total cpu time spent up to now is     2058.8 secs

     total energy              =   -2278.17078876 Ry
     estimated scf accuracy    <       0.00001567 Ry

     total magnetization       =     3.00 Bohr mag/cell
     absolute magnetization    =     3.66 Bohr mag/cell

     iteration # 74     ecut=    58.80 Ry     beta= 0.30
     Davidson diagonalization with overlap
     ethr =  4.85E-09,  avg # of iterations =  2.5

     negative rho (up, down):  5.256E-02 4.926E-02

     total cpu time spent up to now is     2082.0 secs

     total energy              =   -2278.17079091 Ry
     estimated scf accuracy    <       0.00001544 Ry

     total magnetization       =     3.00 Bohr mag/cell
     absolute magnetization    =     3.66 Bohr mag/cell

     iteration # 75     ecut=    58.80 Ry     beta= 0.30
     Davidson diagonalization with overlap
     ethr =  4.78E-09,  avg # of iterations =  3.5

     negative rho (up, down):  5.256E-02 4.926E-02

     total cpu time spent up to now is     2105.8 secs

     total energy              =   -2278.17079346 Ry
     estimated scf accuracy    <       0.00001541 Ry

     total magnetization       =     3.00 Bohr mag/cell
     absolute magnetization    =     3.66 Bohr mag/cell

     iteration # 76     ecut=    58.80 Ry     beta= 0.30
     Davidson diagonalization with overlap
     ethr =  4.77E-09,  avg # of iterations =  4.5

     negative rho (up, down):  5.256E-02 4.926E-02

     total cpu time spent up to now is     2136.2 secs

     total energy              =   -2278.17085547 Ry
     estimated scf accuracy    <       0.00001530 Ry

     total magnetization       =     3.00 Bohr mag/cell
     absolute magnetization    =     3.66 Bohr mag/cell

     iteration # 77     ecut=    58.80 Ry     beta= 0.30
     Davidson diagonalization with overlap
     ethr =  4.74E-09,  avg # of iterations =  4.0

     negative rho (up, down):  5.256E-02 4.927E-02

     total cpu time spent up to now is     2161.4 secs

     total energy              =   -2278.17087359 Ry
     estimated scf accuracy    <       0.00001535 Ry

     total magnetization       =     3.00 Bohr mag/cell
     absolute magnetization    =     3.66 Bohr mag/cell

     iteration # 78     ecut=    58.80 Ry     beta= 0.30
     Davidson diagonalization with overlap
     ethr =  4.74E-09,  avg # of iterations =  4.0

     negative rho (up, down):  5.256E-02 4.927E-02

     total cpu time spent up to now is     2187.8 secs

     total energy              =   -2278.17090135 Ry
     estimated scf accuracy    <       0.00001547 Ry

     total magnetization       =     3.00 Bohr mag/cell
     absolute magnetization    =     3.66 Bohr mag/cell

     iteration # 79     ecut=    58.80 Ry     beta= 0.30
     Davidson diagonalization with overlap
     ethr =  4.74E-09,  avg # of iterations =  4.0

     negative rho (up, down):  5.256E-02 4.927E-02

     total cpu time spent up to now is     2212.7 secs

     total energy              =   -2278.17091903 Ry
     estimated scf accuracy    <       0.00001524 Ry

     total magnetization       =     3.00 Bohr mag/cell
     absolute magnetization    =     3.66 Bohr mag/cell

     iteration # 80     ecut=    58.80 Ry     beta= 0.30
     Davidson diagonalization with overlap
     ethr =  4.72E-09,  avg # of iterations =  4.0

     negative rho (up, down):  5.256E-02 4.927E-02

     total cpu time spent up to now is     2238.1 secs

     total energy              =   -2278.17093759 Ry
     estimated scf accuracy    <       0.00001514 Ry

     total magnetization       =     3.00 Bohr mag/cell
     absolute magnetization    =     3.67 Bohr mag/cell

     iteration # 81     ecut=    58.80 Ry     beta= 0.30
     Davidson diagonalization with overlap
     ethr =  4.69E-09,  avg # of iterations =  3.0

     negative rho (up, down):  5.256E-02 4.927E-02

     total cpu time spent up to now is     2261.9 secs

     total energy              =   -2278.17094107 Ry
     estimated scf accuracy    <       0.00001496 Ry

     total magnetization       =     3.00 Bohr mag/cell
     absolute magnetization    =     3.67 Bohr mag/cell

     iteration # 82     ecut=    58.80 Ry     beta= 0.30
     Davidson diagonalization with overlap
     ethr =  4.63E-09,  avg # of iterations =  2.5

     negative rho (up, down):  5.256E-02 4.927E-02

     total cpu time spent up to now is     2285.1 secs

     total energy              =   -2278.17095362 Ry
     estimated scf accuracy    <       0.00001517 Ry

     total magnetization       =     3.00 Bohr mag/cell
     absolute magnetization    =     3.67 Bohr mag/cell

     iteration # 83     ecut=    58.80 Ry     beta= 0.30
     Davidson diagonalization with overlap
     ethr =  4.63E-09,  avg # of iterations =  4.0

     negative rho (up, down):  5.256E-02 4.928E-02

     total cpu time spent up to now is     2310.1 secs

     total energy              =   -2278.17097424 Ry
     estimated scf accuracy    <       0.00001505 Ry

     total magnetization       =     3.00 Bohr mag/cell
     absolute magnetization    =     3.67 Bohr mag/cell

     iteration # 84     ecut=    58.80 Ry     beta= 0.30
     Davidson diagonalization with overlap
     ethr =  4.63E-09,  avg # of iterations =  3.5

     negative rho (up, down):  5.256E-02 4.928E-02

     total cpu time spent up to now is     2334.8 secs

     total energy              =   -2278.17099921 Ry
     estimated scf accuracy    <       0.00001498 Ry

     total magnetization       =     3.00 Bohr mag/cell
     absolute magnetization    =     3.67 Bohr mag/cell

     iteration # 85     ecut=    58.80 Ry     beta= 0.30
     Davidson diagonalization with overlap
     ethr =  4.63E-09,  avg # of iterations =  3.5

     negative rho (up, down):  5.256E-02 4.928E-02

     total cpu time spent up to now is     2359.3 secs

     total energy              =   -2278.17100631 Ry
     estimated scf accuracy    <       0.00001503 Ry

     total magnetization       =     3.00 Bohr mag/cell
     absolute magnetization    =     3.67 Bohr mag/cell

     iteration # 86     ecut=    58.80 Ry     beta= 0.30
     Davidson diagonalization with overlap
     ethr =  4.63E-09,  avg # of iterations =  2.0

     negative rho (up, down):  5.256E-02 4.928E-02

     total cpu time spent up to now is     2382.1 secs

     total energy              =   -2278.17099403 Ry
     estimated scf accuracy    <       0.00001485 Ry

     total magnetization       =     3.00 Bohr mag/cell
     absolute magnetization    =     3.67 Bohr mag/cell

     iteration # 87     ecut=    58.80 Ry     beta= 0.30
     Davidson diagonalization with overlap
     ethr =  4.60E-09,  avg # of iterations =  3.5

     negative rho (up, down):  5.256E-02 4.928E-02

     total cpu time spent up to now is     2406.5 secs

     total energy              =   -2278.17099242 Ry
     estimated scf accuracy    <       0.00001525 Ry

     total magnetization       =     3.00 Bohr mag/cell
     absolute magnetization    =     3.67 Bohr mag/cell

     iteration # 88     ecut=    58.80 Ry     beta= 0.30
     Davidson diagonalization with overlap
     ethr =  4.60E-09,  avg # of iterations =  2.0

     negative rho (up, down):  5.256E-02 4.928E-02

     total cpu time spent up to now is     2429.2 secs

     total energy              =   -2278.17100811 Ry
     estimated scf accuracy    <       0.00001520 Ry

     total magnetization       =     3.00 Bohr mag/cell
     absolute magnetization    =     3.67 Bohr mag/cell

     iteration # 89     ecut=    58.80 Ry     beta= 0.30
     Davidson diagonalization with overlap
     ethr =  4.60E-09,  avg # of iterations =  4.0

     negative rho (up, down):  5.256E-02 4.928E-02

     total cpu time spent up to now is     2454.4 secs

     total energy              =   -2278.17101924 Ry
     estimated scf accuracy    <       0.00001519 Ry

     total magnetization       =     3.00 Bohr mag/cell
     absolute magnetization    =     3.67 Bohr mag/cell

     iteration # 90     ecut=    58.80 Ry     beta= 0.30
     Davidson diagonalization with overlap
     ethr =  4.60E-09,  avg # of iterations =  2.5

     negative rho (up, down):  5.256E-02 4.928E-02

     total cpu time spent up to now is     2477.6 secs

     total energy              =   -2278.17103383 Ry
     estimated scf accuracy    <       0.00001517 Ry

     total magnetization       =     3.00 Bohr mag/cell
     absolute magnetization    =     3.67 Bohr mag/cell

     iteration # 91     ecut=    58.80 Ry     beta= 0.30
     Davidson diagonalization with overlap
     ethr =  4.60E-09,  avg # of iterations =  4.0

     negative rho (up, down):  5.256E-02 4.929E-02

     total cpu time spent up to now is     2502.6 secs

     total energy              =   -2278.17105543 Ry
     estimated scf accuracy    <       0.00001527 Ry

     total magnetization       =     3.00 Bohr mag/cell
     absolute magnetization    =     3.67 Bohr mag/cell

     iteration # 92     ecut=    58.80 Ry     beta= 0.30
     Davidson diagonalization with overlap
     ethr =  4.60E-09,  avg # of iterations =  4.0

     negative rho (up, down):  5.256E-02 4.928E-02

     total cpu time spent up to now is     2529.1 secs

     total energy              =   -2278.17093938 Ry
     estimated scf accuracy    <       0.00001513 Ry

     total magnetization       =     3.00 Bohr mag/cell
     absolute magnetization    =     3.67 Bohr mag/cell

     iteration # 93     ecut=    58.80 Ry     beta= 0.30
     Davidson diagonalization with overlap
     ethr =  4.60E-09,  avg # of iterations =  4.5

     negative rho (up, down):  5.256E-02 4.928E-02

     total cpu time spent up to now is     2560.3 secs

     total energy              =   -2278.17099406 Ry
     estimated scf accuracy    <       0.00001514 Ry

     total magnetization       =     3.00 Bohr mag/cell
     absolute magnetization    =     3.67 Bohr mag/cell

     iteration # 94     ecut=    58.80 Ry     beta= 0.30
     Davidson diagonalization with overlap
     ethr =  4.60E-09,  avg # of iterations =  4.5

     negative rho (up, down):  5.256E-02 4.929E-02

     total cpu time spent up to now is     2590.7 secs

     total energy              =   -2278.17097360 Ry
     estimated scf accuracy    <       0.00001516 Ry

     total magnetization       =     3.00 Bohr mag/cell
     absolute magnetization    =     3.67 Bohr mag/cell

     iteration # 95     ecut=    58.80 Ry     beta= 0.30
     Davidson diagonalization with overlap
     ethr =  4.60E-09,  avg # of iterations =  4.5

     negative rho (up, down):  5.256E-02 4.930E-02

     total cpu time spent up to now is     2625.0 secs

     total energy              =   -2278.17112446 Ry
     estimated scf accuracy    <       0.00001503 Ry

     total magnetization       =     3.00 Bohr mag/cell
     absolute magnetization    =     3.67 Bohr mag/cell

     iteration # 96     ecut=    58.80 Ry     beta= 0.30
     Davidson diagonalization with overlap
     ethr =  4.60E-09,  avg # of iterations =  4.0

     negative rho (up, down):  5.256E-02 4.929E-02

     total cpu time spent up to now is     2653.6 secs

     total energy              =   -2278.17111766 Ry
     estimated scf accuracy    <       0.00001505 Ry

     total magnetization       =     3.00 Bohr mag/cell
     absolute magnetization    =     3.68 Bohr mag/cell

     iteration # 97     ecut=    58.80 Ry     beta= 0.30
     Davidson diagonalization with overlap
     ethr =  4.60E-09,  avg # of iterations =  4.0

     negative rho (up, down):  5.256E-02 4.930E-02

     total cpu time spent up to now is     2678.6 secs

     total energy              =   -2278.17114208 Ry
     estimated scf accuracy    <       0.00001509 Ry

     total magnetization       =     3.00 Bohr mag/cell
     absolute magnetization    =     3.67 Bohr mag/cell

     iteration # 98     ecut=    58.80 Ry     beta= 0.30
     Davidson diagonalization with overlap
     ethr =  4.60E-09,  avg # of iterations =  3.5

     negative rho (up, down):  5.256E-02 4.929E-02

     total cpu time spent up to now is     2703.0 secs

     total energy              =   -2278.17105723 Ry
     estimated scf accuracy    <       0.00001510 Ry

     total magnetization       =     3.00 Bohr mag/cell
     absolute magnetization    =     3.68 Bohr mag/cell

     iteration # 99     ecut=    58.80 Ry     beta= 0.30
     Davidson diagonalization with overlap
     ethr =  4.60E-09,  avg # of iterations =  4.5

     negative rho (up, down):  5.256E-02 4.928E-02

     total cpu time spent up to now is     2732.7 secs

     total energy              =   -2278.17103382 Ry
     estimated scf accuracy    <       0.00001554 Ry

     total magnetization       =     3.00 Bohr mag/cell
     absolute magnetization    =     3.67 Bohr mag/cell

     iteration #100     ecut=    58.80 Ry     beta= 0.30
     Davidson diagonalization with overlap
     ethr =  4.60E-09,  avg # of iterations =  4.0

     negative rho (up, down):  5.256E-02 4.928E-02

     total cpu time spent up to now is     2760.6 secs

     total energy              =   -2278.17106368 Ry
     estimated scf accuracy    <       0.00001517 Ry

     total magnetization       =     3.00 Bohr mag/cell
     absolute magnetization    =     3.67 Bohr mag/cell

     iteration #101     ecut=    58.80 Ry     beta= 0.30
     Davidson diagonalization with overlap
     ethr =  4.60E-09,  avg # of iterations =  2.0

     negative rho (up, down):  5.256E-02 4.929E-02

     total cpu time spent up to now is     2783.2 secs

     total energy              =   -2278.17103790 Ry
     estimated scf accuracy    <       0.00001529 Ry

     total magnetization       =     3.00 Bohr mag/cell
     absolute magnetization    =     3.67 Bohr mag/cell

     iteration #102     ecut=    58.80 Ry     beta= 0.30
     Davidson diagonalization with overlap
     ethr =  4.60E-09,  avg # of iterations =  4.5

     negative rho (up, down):  5.256E-02 4.929E-02

     total cpu time spent up to now is     2815.7 secs

     total energy              =   -2278.17112685 Ry
     estimated scf accuracy    <       0.00001490 Ry

     total magnetization       =     3.00 Bohr mag/cell
     absolute magnetization    =     3.67 Bohr mag/cell

     iteration #103     ecut=    58.80 Ry     beta= 0.30
     Davidson diagonalization with overlap
     ethr =  4.60E-09,  avg # of iterations =  1.0

     negative rho (up, down):  5.256E-02 4.930E-02

     total cpu time spent up to now is     2837.8 secs

     total energy              =   -2278.17114135 Ry
     estimated scf accuracy    <       0.00001509 Ry

     total magnetization       =     3.00 Bohr mag/cell
     absolute magnetization    =     3.67 Bohr mag/cell

     iteration #104     ecut=    58.80 Ry     beta= 0.30
     Davidson diagonalization with overlap
     ethr =  4.60E-09,  avg # of iterations =  4.0

     negative rho (up, down):  5.256E-02 4.930E-02

     total cpu time spent up to now is     2865.1 secs

     total energy              =   -2278.17116680 Ry
     estimated scf accuracy    <       0.00001535 Ry

     total magnetization       =     3.00 Bohr mag/cell
     absolute magnetization    =     3.68 Bohr mag/cell

     iteration #105     ecut=    58.80 Ry     beta= 0.30
     Davidson diagonalization with overlap
     ethr =  4.60E-09,  avg # of iterations =  4.5

     negative rho (up, down):  5.256E-02 4.930E-02

     total cpu time spent up to now is     2892.1 secs

     total energy              =   -2278.17119034 Ry
     estimated scf accuracy    <       0.00001525 Ry

     total magnetization       =     3.00 Bohr mag/cell
     absolute magnetization    =     3.68 Bohr mag/cell

     iteration #106     ecut=    58.80 Ry     beta= 0.30
     Davidson diagonalization with overlap
     ethr =  4.60E-09,  avg # of iterations =  4.0

     negative rho (up, down):  5.256E-02 4.930E-02

     total cpu time spent up to now is     2917.2 secs

     total energy              =   -2278.17117680 Ry
     estimated scf accuracy    <       0.00001621 Ry

     total magnetization       =     3.00 Bohr mag/cell
     absolute magnetization    =     3.68 Bohr mag/cell

     iteration #107     ecut=    58.80 Ry     beta= 0.30
     Davidson diagonalization with overlap
     ethr =  4.60E-09,  avg # of iterations =  4.0

     negative rho (up, down):  5.256E-02 4.930E-02

     total cpu time spent up to now is     2944.1 secs

     total energy              =   -2278.17117592 Ry
     estimated scf accuracy    <       0.00001658 Ry

     total magnetization       =     3.00 Bohr mag/cell
     absolute magnetization    =     3.68 Bohr mag/cell

     iteration #108     ecut=    58.80 Ry     beta= 0.30
     Davidson diagonalization with overlap
     ethr =  4.60E-09,  avg # of iterations =  4.0

     negative rho (up, down):  5.256E-02 4.931E-02

     total cpu time spent up to now is     2969.8 secs

     total energy              =   -2278.17114173 Ry
     estimated scf accuracy    <       0.00001662 Ry

     total magnetization       =     3.00 Bohr mag/cell
     absolute magnetization    =     3.68 Bohr mag/cell

     iteration #109     ecut=    58.80 Ry     beta= 0.30
     Davidson diagonalization with overlap
     ethr =  4.60E-09,  avg # of iterations =  4.5

     negative rho (up, down):  5.256E-02 4.932E-02

     total cpu time spent up to now is     3004.0 secs

     total energy              =   -2278.17126335 Ry
     estimated scf accuracy    <       0.00001655 Ry

     total magnetization       =     3.00 Bohr mag/cell
     absolute magnetization    =     3.68 Bohr mag/cell

     iteration #110     ecut=    58.80 Ry     beta= 0.30
     Davidson diagonalization with overlap
     ethr =  4.60E-09,  avg # of iterations =  5.0

     negative rho (up, down):  5.256E-02 4.931E-02

     total cpu time spent up to now is     3034.5 secs

     total energy              =   -2278.17121082 Ry
     estimated scf accuracy    <       0.00001601 Ry

     total magnetization       =     3.00 Bohr mag/cell
     absolute magnetization    =     3.68 Bohr mag/cell

     iteration #111     ecut=    58.80 Ry     beta= 0.30
     Davidson diagonalization with overlap
     ethr =  4.60E-09,  avg # of iterations =  4.5

     negative rho (up, down):  5.256E-02 4.930E-02

     total cpu time spent up to now is     3067.5 secs

     total energy              =   -2278.17112195 Ry
     estimated scf accuracy    <       0.00001554 Ry

     total magnetization       =     3.00 Bohr mag/cell
     absolute magnetization    =     3.68 Bohr mag/cell

     iteration #112     ecut=    58.80 Ry     beta= 0.30
     Davidson diagonalization with overlap
     ethr =  4.60E-09,  avg # of iterations =  4.5

     negative rho (up, down):  5.256E-02 4.930E-02

     total cpu time spent up to now is     3100.7 secs

     total energy              =   -2278.17120761 Ry
     estimated scf accuracy    <       0.00001432 Ry

     total magnetization       =     3.00 Bohr mag/cell
     absolute magnetization    =     3.68 Bohr mag/cell

     iteration #113     ecut=    58.80 Ry     beta= 0.30
     Davidson diagonalization with overlap
     ethr =  4.43E-09,  avg # of iterations =  3.0

     negative rho (up, down):  5.256E-02 4.930E-02

     total cpu time spent up to now is     3124.5 secs

     total energy              =   -2278.17120460 Ry
     estimated scf accuracy    <       0.00001438 Ry

     total magnetization       =     3.00 Bohr mag/cell
     absolute magnetization    =     3.68 Bohr mag/cell

     iteration #114     ecut=    58.80 Ry     beta= 0.30
     Davidson diagonalization with overlap
     ethr =  4.43E-09,  avg # of iterations =  2.0

     negative rho (up, down):  5.256E-02 4.930E-02

     total cpu time spent up to now is     3147.4 secs

     total energy              =   -2278.17120498 Ry
     estimated scf accuracy    <       0.00001449 Ry

     total magnetization       =     3.00 Bohr mag/cell
     absolute magnetization    =     3.68 Bohr mag/cell

     iteration #115     ecut=    58.80 Ry     beta= 0.30
     Davidson diagonalization with overlap
     ethr =  4.43E-09,  avg # of iterations =  4.0

     negative rho (up, down):  5.256E-02 4.931E-02

     total cpu time spent up to now is     3175.7 secs

     total energy              =   -2278.17121826 Ry
     estimated scf accuracy    <       0.00001439 Ry

     total magnetization       =     3.00 Bohr mag/cell
     absolute magnetization    =     3.68 Bohr mag/cell

     iteration #116     ecut=    58.80 Ry     beta= 0.30
     Davidson diagonalization with overlap
     ethr =  4.43E-09,  avg # of iterations =  4.5

     negative rho (up, down):  5.256E-02 4.932E-02

     total cpu time spent up to now is     3209.1 secs

     total energy              =   -2278.17127202 Ry
     estimated scf accuracy    <       0.00001437 Ry

     total magnetization       =     3.00 Bohr mag/cell
     absolute magnetization    =     3.68 Bohr mag/cell

     iteration #117     ecut=    58.80 Ry     beta= 0.30
     Davidson diagonalization with overlap
     ethr =  4.43E-09,  avg # of iterations =  5.0

     negative rho (up, down):  5.256E-02 4.932E-02

     total cpu time spent up to now is     3244.1 secs

     total energy              =   -2278.17135733 Ry
     estimated scf accuracy    <       0.00001510 Ry

     total magnetization       =     3.00 Bohr mag/cell
     absolute magnetization    =     3.68 Bohr mag/cell

     iteration #118     ecut=    58.80 Ry     beta= 0.30
     Davidson diagonalization with overlap
     ethr =  4.43E-09,  avg # of iterations =  4.0

     negative rho (up, down):  5.256E-02 4.932E-02

     total cpu time spent up to now is     3271.1 secs

     total energy              =   -2278.17135464 Ry
     estimated scf accuracy    <       0.00001501 Ry

     total magnetization       =     3.00 Bohr mag/cell
     absolute magnetization    =     3.68 Bohr mag/cell

     iteration #119     ecut=    58.80 Ry     beta= 0.30
     Davidson diagonalization with overlap
     ethr =  4.43E-09,  avg # of iterations =  4.5

     negative rho (up, down):  5.256E-02 4.932E-02

     total cpu time spent up to now is     3301.7 secs

     total energy              =   -2278.17138715 Ry
     estimated scf accuracy    <       0.00001446 Ry

     total magnetization       =     3.00 Bohr mag/cell
     absolute magnetization    =     3.68 Bohr mag/cell

     iteration #120     ecut=    58.80 Ry     beta= 0.30
     Davidson diagonalization with overlap
     ethr =  4.43E-09,  avg # of iterations =  3.5

     negative rho (up, down):  5.256E-02 4.933E-02

     total cpu time spent up to now is     3326.8 secs

     total energy              =   -2278.17135897 Ry
     estimated scf accuracy    <       0.00001422 Ry

     total magnetization       =     3.00 Bohr mag/cell
     absolute magnetization    =     3.69 Bohr mag/cell

     iteration #121     ecut=    58.80 Ry     beta= 0.30
     Davidson diagonalization with overlap
     ethr =  4.40E-09,  avg # of iterations =  5.0

     negative rho (up, down):  5.256E-02 4.934E-02

     total cpu time spent up to now is     3361.7 secs

     total energy              =   -2278.17138475 Ry
     estimated scf accuracy    <       0.00001338 Ry

     total magnetization       =     3.00 Bohr mag/cell
     absolute magnetization    =     3.69 Bohr mag/cell

     iteration #122     ecut=    58.80 Ry     beta= 0.30
     Davidson diagonalization with overlap
     ethr =  4.14E-09,  avg # of iterations =  4.5

     negative rho (up, down):  5.256E-02 4.933E-02

     total cpu time spent up to now is     3396.3 secs

     total energy              =   -2278.17142769 Ry
     estimated scf accuracy    <       0.00001310 Ry

     total magnetization       =     3.00 Bohr mag/cell
     absolute magnetization    =     3.69 Bohr mag/cell

     iteration #123     ecut=    58.80 Ry     beta= 0.30
     Davidson diagonalization with overlap
     ethr =  4.05E-09,  avg # of iterations =  4.5

     negative rho (up, down):  5.256E-02 4.933E-02

     total cpu time spent up to now is     3426.3 secs

     total energy              =   -2278.17145252 Ry
     estimated scf accuracy    <       0.00001295 Ry

     total magnetization       =     3.00 Bohr mag/cell
     absolute magnetization    =     3.69 Bohr mag/cell

     iteration #124     ecut=    58.80 Ry     beta= 0.30
     Davidson diagonalization with overlap
     ethr =  4.01E-09,  avg # of iterations =  2.5

     negative rho (up, down):  5.256E-02 4.933E-02

     total cpu time spent up to now is     3449.5 secs

     total energy              =   -2278.17146047 Ry
     estimated scf accuracy    <       0.00001292 Ry

     total magnetization       =     3.00 Bohr mag/cell
     absolute magnetization    =     3.69 Bohr mag/cell

     iteration #125     ecut=    58.80 Ry     beta= 0.30
     Davidson diagonalization with overlap
     ethr =  4.00E-09,  avg # of iterations =  3.0

     negative rho (up, down):  5.256E-02 4.933E-02

     total cpu time spent up to now is     3473.1 secs

     total energy              =   -2278.17146819 Ry
     estimated scf accuracy    <       0.00001282 Ry

     total magnetization       =     3.00 Bohr mag/cell
     absolute magnetization    =     3.69 Bohr mag/cell

     iteration #126     ecut=    58.80 Ry     beta= 0.30
     Davidson diagonalization with overlap
     ethr =  3.97E-09,  avg # of iterations =  3.0

     negative rho (up, down):  5.256E-02 4.934E-02

     total cpu time spent up to now is     3496.6 secs

     total energy              =   -2278.17147538 Ry
     estimated scf accuracy    <       0.00001276 Ry

     total magnetization       =     3.00 Bohr mag/cell
     absolute magnetization    =     3.69 Bohr mag/cell

     iteration #127     ecut=    58.80 Ry     beta= 0.30
     Davidson diagonalization with overlap
     ethr =  3.95E-09,  avg # of iterations =  3.5

     negative rho (up, down):  5.256E-02 4.934E-02

     total cpu time spent up to now is     3520.7 secs

     total energy              =   -2278.17144797 Ry
     estimated scf accuracy    <       0.00001264 Ry

     total magnetization       =     3.00 Bohr mag/cell
     absolute magnetization    =     3.69 Bohr mag/cell

     iteration #128     ecut=    58.80 Ry     beta= 0.30
     Davidson diagonalization with overlap
     ethr =  3.91E-09,  avg # of iterations =  4.5

     negative rho (up, down):  5.256E-02 4.934E-02

     total cpu time spent up to now is     3555.8 secs

     total energy              =   -2278.17154682 Ry
     estimated scf accuracy    <       0.00001237 Ry

     total magnetization       =     3.00 Bohr mag/cell
     absolute magnetization    =     3.70 Bohr mag/cell

     iteration #129     ecut=    58.80 Ry     beta= 0.30
     Davidson diagonalization with overlap
     ethr =  3.83E-09,  avg # of iterations =  4.0

     negative rho (up, down):  5.255E-02 4.935E-02

     total cpu time spent up to now is     3583.9 secs

     total energy              =   -2278.17157074 Ry
     estimated scf accuracy    <       0.00001224 Ry

     total magnetization       =     3.00 Bohr mag/cell
     absolute magnetization    =     3.70 Bohr mag/cell

     iteration #130     ecut=    58.80 Ry     beta= 0.30
     Davidson diagonalization with overlap
     ethr =  3.79E-09,  avg # of iterations =  4.5

     negative rho (up, down):  5.255E-02 4.935E-02

     total cpu time spent up to now is     3611.0 secs

     total energy              =   -2278.17158778 Ry
     estimated scf accuracy    <       0.00001220 Ry

     total magnetization       =     3.00 Bohr mag/cell
     absolute magnetization    =     3.70 Bohr mag/cell

     iteration #131     ecut=    58.80 Ry     beta= 0.30
     Davidson diagonalization with overlap
     ethr =  3.78E-09,  avg # of iterations =  4.0

     negative rho (up, down):  5.255E-02 4.935E-02

     total cpu time spent up to now is     3637.5 secs

     total energy              =   -2278.17159606 Ry
     estimated scf accuracy    <       0.00001209 Ry

     total magnetization       =     3.00 Bohr mag/cell
     absolute magnetization    =     3.70 Bohr mag/cell

     iteration #132     ecut=    58.80 Ry     beta= 0.30
     Davidson diagonalization with overlap
     ethr =  3.74E-09,  avg # of iterations =  3.5

     negative rho (up, down):  5.255E-02 4.935E-02

     total cpu time spent up to now is     3663.4 secs

     total energy              =   -2278.17161070 Ry
     estimated scf accuracy    <       0.00001199 Ry

     total magnetization       =     3.00 Bohr mag/cell
     absolute magnetization    =     3.70 Bohr mag/cell

     iteration #133     ecut=    58.80 Ry     beta= 0.30
     Davidson diagonalization with overlap
     ethr =  3.71E-09,  avg # of iterations =  4.0

     negative rho (up, down):  5.255E-02 4.936E-02

     total cpu time spent up to now is     3689.4 secs

     total energy              =   -2278.17155986 Ry
     estimated scf accuracy    <       0.00001168 Ry

     total magnetization       =     3.00 Bohr mag/cell
     absolute magnetization    =     3.70 Bohr mag/cell

     iteration #134     ecut=    58.80 Ry     beta= 0.30
     Davidson diagonalization with overlap
     ethr =  3.62E-09,  avg # of iterations =  4.5

     negative rho (up, down):  5.255E-02 4.936E-02

     total cpu time spent up to now is     3725.4 secs

     total energy              =   -2278.17158476 Ry
     estimated scf accuracy    <       0.00001118 Ry

     total magnetization       =     3.00 Bohr mag/cell
     absolute magnetization    =     3.70 Bohr mag/cell

     iteration #135     ecut=    58.80 Ry     beta= 0.30
     Davidson diagonalization with overlap
     ethr =  3.46E-09,  avg # of iterations =  4.5

     negative rho (up, down):  5.255E-02 4.937E-02

     total cpu time spent up to now is     3761.2 secs

     total energy              =   -2278.17168252 Ry
     estimated scf accuracy    <       0.00001035 Ry

     total magnetization       =     3.00 Bohr mag/cell
     absolute magnetization    =     3.70 Bohr mag/cell

     iteration #136     ecut=    58.80 Ry     beta= 0.30
     Davidson diagonalization with overlap
     ethr =  3.20E-09,  avg # of iterations =  4.5

     negative rho (up, down):  5.255E-02 4.937E-02

     total cpu time spent up to now is     3793.6 secs

     total energy              =   -2278.17173632 Ry
     estimated scf accuracy    <       0.00001016 Ry

     total magnetization       =     3.00 Bohr mag/cell
     absolute magnetization    =     3.71 Bohr mag/cell

     iteration #137     ecut=    58.80 Ry     beta= 0.30
     Davidson diagonalization with overlap
     ethr =  3.15E-09,  avg # of iterations =  4.0

     negative rho (up, down):  5.255E-02 4.937E-02

     total cpu time spent up to now is     3819.2 secs

     total energy              =   -2278.17174009 Ry
     estimated scf accuracy    <       0.00001013 Ry

     total magnetization       =     3.00 Bohr mag/cell
     absolute magnetization    =     3.71 Bohr mag/cell

     iteration #138     ecut=    58.80 Ry     beta= 0.30
     Davidson diagonalization with overlap
     ethr =  3.14E-09,  avg # of iterations =  2.0

     negative rho (up, down):  5.255E-02 4.937E-02

     total cpu time spent up to now is     3841.9 secs

     total energy              =   -2278.17174445 Ry
     estimated scf accuracy    <       0.00001027 Ry

     total magnetization       =     3.00 Bohr mag/cell
     absolute magnetization    =     3.71 Bohr mag/cell

     iteration #139     ecut=    58.80 Ry     beta= 0.30
     Davidson diagonalization with overlap
     ethr =  3.14E-09,  avg # of iterations =  4.0

     negative rho (up, down):  5.255E-02 4.937E-02

     total cpu time spent up to now is     3867.0 secs

     total energy              =   -2278.17175413 Ry
     estimated scf accuracy    <       0.00001021 Ry

     total magnetization       =     3.00 Bohr mag/cell
     absolute magnetization    =     3.71 Bohr mag/cell

     iteration #140     ecut=    58.80 Ry     beta= 0.30
     Davidson diagonalization with overlap
     ethr =  3.14E-09,  avg # of iterations =  3.0

     negative rho (up, down):  5.255E-02 4.938E-02

     total cpu time spent up to now is     3890.6 secs

     total energy              =   -2278.17174913 Ry
     estimated scf accuracy    <       0.00001007 Ry

     total magnetization       =     3.00 Bohr mag/cell
     absolute magnetization    =     3.71 Bohr mag/cell

     iteration #141     ecut=    58.80 Ry     beta= 0.30
     Davidson diagonalization with overlap
     ethr =  3.12E-09,  avg # of iterations =  4.5

     negative rho (up, down):  5.255E-02 4.937E-02

     total cpu time spent up to now is     3921.1 secs

     total energy              =   -2278.17177144 Ry
     estimated scf accuracy    <       0.00000967 Ry

     total magnetization       =     3.00 Bohr mag/cell
     absolute magnetization    =     3.71 Bohr mag/cell

     iteration #142     ecut=    58.80 Ry     beta= 0.30
     Davidson diagonalization with overlap
     ethr =  2.99E-09,  avg # of iterations =  4.5

     negative rho (up, down):  5.255E-02 4.937E-02

     total cpu time spent up to now is     3951.3 secs

     total energy              =   -2278.17178454 Ry
     estimated scf accuracy    <       0.00001018 Ry

     total magnetization       =     3.00 Bohr mag/cell
     absolute magnetization    =     3.71 Bohr mag/cell

     iteration #143     ecut=    58.80 Ry     beta= 0.30
     Davidson diagonalization with overlap
     ethr =  2.99E-09,  avg # of iterations =  2.0

     negative rho (up, down):  5.255E-02 4.938E-02

     total cpu time spent up to now is     3973.9 secs

     total energy              =   -2278.17179031 Ry
     estimated scf accuracy    <       0.00001010 Ry

     total magnetization       =     3.00 Bohr mag/cell
     absolute magnetization    =     3.71 Bohr mag/cell

     iteration #144     ecut=    58.80 Ry     beta= 0.30
     Davidson diagonalization with overlap
     ethr =  2.99E-09,  avg # of iterations =  3.5

     negative rho (up, down):  5.255E-02 4.938E-02

     total cpu time spent up to now is     3998.5 secs

     total energy              =   -2278.17179897 Ry
     estimated scf accuracy    <       0.00000975 Ry

     total magnetization       =     3.00 Bohr mag/cell
     absolute magnetization    =     3.71 Bohr mag/cell

     iteration #145     ecut=    58.80 Ry     beta= 0.30
     Davidson diagonalization with overlap
     ethr =  2.99E-09,  avg # of iterations =  3.0

     negative rho (up, down):  5.255E-02 4.938E-02

     total cpu time spent up to now is     4021.9 secs

     total energy              =   -2278.17180508 Ry
     estimated scf accuracy    <       0.00000970 Ry

     total magnetization       =     3.00 Bohr mag/cell
     absolute magnetization    =     3.71 Bohr mag/cell

     iteration #146     ecut=    58.80 Ry     beta= 0.30
     Davidson diagonalization with overlap
     ethr =  2.99E-09,  avg # of iterations =  3.5

     negative rho (up, down):  5.255E-02 4.938E-02

     total cpu time spent up to now is     4046.1 secs

     total energy              =   -2278.17179037 Ry
     estimated scf accuracy    <       0.00000974 Ry

     total magnetization       =     3.00 Bohr mag/cell
     absolute magnetization    =     3.71 Bohr mag/cell

     iteration #147     ecut=    58.80 Ry     beta= 0.30
     Davidson diagonalization with overlap
     ethr =  2.99E-09,  avg # of iterations =  4.0

     negative rho (up, down):  5.255E-02 4.938E-02

     total cpu time spent up to now is     4071.2 secs

     total energy              =   -2278.17179379 Ry
     estimated scf accuracy    <       0.00000970 Ry

     total magnetization       =     3.00 Bohr mag/cell
     absolute magnetization    =     3.71 Bohr mag/cell

     iteration #148     ecut=    58.80 Ry     beta= 0.30
     Davidson diagonalization with overlap
     ethr =  2.99E-09,  avg # of iterations =  2.0

     negative rho (up, down):  5.255E-02 4.938E-02

     total cpu time spent up to now is     4094.0 secs

     total energy              =   -2278.17179483 Ry
     estimated scf accuracy    <       0.00000972 Ry

     total magnetization       =     3.00 Bohr mag/cell
     absolute magnetization    =     3.71 Bohr mag/cell

     iteration #149     ecut=    58.80 Ry     beta= 0.30
     Davidson diagonalization with overlap
     ethr =  2.99E-09,  avg # of iterations =  2.0

     negative rho (up, down):  5.255E-02 4.937E-02

     total cpu time spent up to now is     4116.9 secs

     total energy              =   -2278.17177915 Ry
     estimated scf accuracy    <       0.00000968 Ry

     total magnetization       =     3.00 Bohr mag/cell
     absolute magnetization    =     3.71 Bohr mag/cell

     iteration #150     ecut=    58.80 Ry     beta= 0.30
     Davidson diagonalization with overlap
     ethr =  2.99E-09,  avg # of iterations =  4.0

     negative rho (up, down):  5.255E-02 4.938E-02

     total cpu time spent up to now is     4143.9 secs

     total energy              =   -2278.17178830 Ry
     estimated scf accuracy    <       0.00000952 Ry

     total magnetization       =     3.00 Bohr mag/cell
     absolute magnetization    =     3.71 Bohr mag/cell

     iteration #151     ecut=    58.80 Ry     beta= 0.30
     Davidson diagonalization with overlap
     ethr =  2.95E-09,  avg # of iterations =  4.0

     negative rho (up, down):  5.255E-02 4.938E-02

     total cpu time spent up to now is     4169.5 secs

     total energy              =   -2278.17178945 Ry
     estimated scf accuracy    <       0.00000961 Ry

     total magnetization       =     3.00 Bohr mag/cell
     absolute magnetization    =     3.71 Bohr mag/cell

     iteration #152     ecut=    58.80 Ry     beta= 0.30
     Davidson diagonalization with overlap
     ethr =  2.95E-09,  avg # of iterations =  1.0

     negative rho (up, down):  5.255E-02 4.938E-02

     total cpu time spent up to now is     4191.6 secs

     total energy              =   -2278.17177970 Ry
     estimated scf accuracy    <       0.00000965 Ry

     total magnetization       =     3.00 Bohr mag/cell
     absolute magnetization    =     3.71 Bohr mag/cell

     iteration #153     ecut=    58.80 Ry     beta= 0.30
     Davidson diagonalization with overlap
     ethr =  2.95E-09,  avg # of iterations =  4.0

     negative rho (up, down):  5.255E-02 4.937E-02

     total cpu time spent up to now is     4216.3 secs

     total energy              =   -2278.17173070 Ry
     estimated scf accuracy    <       0.00000948 Ry

     total magnetization       =     3.00 Bohr mag/cell
     absolute magnetization    =     3.71 Bohr mag/cell

     iteration #154     ecut=    58.80 Ry     beta= 0.30
     Davidson diagonalization with overlap
     ethr =  2.94E-09,  avg # of iterations =  5.0

     negative rho (up, down):  5.255E-02 4.938E-02

     total cpu time spent up to now is     4248.7 secs

     total energy              =   -2278.17166182 Ry
     estimated scf accuracy    <       0.00000920 Ry

     total magnetization       =     3.00 Bohr mag/cell
     absolute magnetization    =     3.71 Bohr mag/cell

     iteration #155     ecut=    58.80 Ry     beta= 0.30
     Davidson diagonalization with overlap
     ethr =  2.85E-09,  avg # of iterations =  4.5

     negative rho (up, down):  5.255E-02 4.938E-02

     total cpu time spent up to now is     4286.1 secs

     total energy              =   -2278.17175131 Ry
     estimated scf accuracy    <       0.00000919 Ry

     total magnetization       =     3.00 Bohr mag/cell
     absolute magnetization    =     3.71 Bohr mag/cell

     iteration #156     ecut=    58.80 Ry     beta= 0.30
     Davidson diagonalization with overlap
     ethr =  2.85E-09,  avg # of iterations =  2.5

     negative rho (up, down):  5.255E-02 4.938E-02

     total cpu time spent up to now is     4309.4 secs

     total energy              =   -2278.17174531 Ry
     estimated scf accuracy    <       0.00000927 Ry

     total magnetization       =     3.00 Bohr mag/cell
     absolute magnetization    =     3.71 Bohr mag/cell

     iteration #157     ecut=    58.80 Ry     beta= 0.30
     Davidson diagonalization with overlap
     ethr =  2.85E-09,  avg # of iterations =  4.0

     negative rho (up, down):  5.255E-02 4.938E-02

     total cpu time spent up to now is     4336.1 secs

     total energy              =   -2278.17174753 Ry
     estimated scf accuracy    <       0.00000933 Ry

     total magnetization       =     3.00 Bohr mag/cell
     absolute magnetization    =     3.71 Bohr mag/cell

     iteration #158     ecut=    58.80 Ry     beta= 0.30
     Davidson diagonalization with overlap
     ethr =  2.85E-09,  avg # of iterations =  3.5

     negative rho (up, down):  5.255E-02 4.938E-02

     total cpu time spent up to now is     4360.5 secs

     total energy              =   -2278.17174016 Ry
     estimated scf accuracy    <       0.00000913 Ry

     total magnetization       =     3.00 Bohr mag/cell
     absolute magnetization    =     3.71 Bohr mag/cell

     iteration #159     ecut=    58.80 Ry     beta= 0.30
     Davidson diagonalization with overlap
     ethr =  2.83E-09,  avg # of iterations =  4.5

     negative rho (up, down):  5.255E-02 4.938E-02

     total cpu time spent up to now is     4387.9 secs

     total energy              =   -2278.17174671 Ry
     estimated scf accuracy    <       0.00000933 Ry

     total magnetization       =     3.00 Bohr mag/cell
     absolute magnetization    =     3.71 Bohr mag/cell

     iteration #160     ecut=    58.80 Ry     beta= 0.30
     Davidson diagonalization with overlap
     ethr =  2.83E-09,  avg # of iterations =  1.0

     negative rho (up, down):  5.255E-02 4.938E-02

     total cpu time spent up to now is     4410.0 secs

     total energy              =   -2278.17174402 Ry
     estimated scf accuracy    <       0.00000932 Ry

     total magnetization       =     3.00 Bohr mag/cell
     absolute magnetization    =     3.71 Bohr mag/cell

     iteration #161     ecut=    58.80 Ry     beta= 0.30
     Davidson diagonalization with overlap
     ethr =  2.83E-09,  avg # of iterations =  1.0

     negative rho (up, down):  5.255E-02 4.938E-02

     total cpu time spent up to now is     4432.2 secs

     total energy              =   -2278.17170059 Ry
     estimated scf accuracy    <       0.00000966 Ry

     total magnetization       =     3.00 Bohr mag/cell
     absolute magnetization    =     3.71 Bohr mag/cell

     iteration #162     ecut=    58.80 Ry     beta= 0.30
     Davidson diagonalization with overlap
     ethr =  2.83E-09,  avg # of iterations =  4.5

     negative rho (up, down):  5.255E-02 4.938E-02

     total cpu time spent up to now is     4467.1 secs

     total energy              =   -2278.17177381 Ry
     estimated scf accuracy    <       0.00000936 Ry

     total magnetization       =     3.00 Bohr mag/cell
     absolute magnetization    =     3.71 Bohr mag/cell

     iteration #163     ecut=    58.80 Ry     beta= 0.30
     Davidson diagonalization with overlap
     ethr =  2.83E-09,  avg # of iterations =  4.0

     negative rho (up, down):  5.255E-02 4.938E-02

     total cpu time spent up to now is     4492.4 secs

     total energy              =   -2278.17175410 Ry
     estimated scf accuracy    <       0.00000927 Ry

     total magnetization       =     3.00 Bohr mag/cell
     absolute magnetization    =     3.71 Bohr mag/cell

     iteration #164     ecut=    58.80 Ry     beta= 0.30
     Davidson diagonalization with overlap
     ethr =  2.83E-09,  avg # of iterations =  4.5

     negative rho (up, down):  5.255E-02 4.938E-02

     total cpu time spent up to now is     4523.6 secs

     total energy              =   -2278.17166119 Ry
     estimated scf accuracy    <       0.00000906 Ry

     total magnetization       =     3.00 Bohr mag/cell
     absolute magnetization    =     3.71 Bohr mag/cell

     iteration #165     ecut=    58.80 Ry     beta= 0.30
     Davidson diagonalization with overlap
     ethr =  2.80E-09,  avg # of iterations =  4.5

     negative rho (up, down):  5.255E-02 4.938E-02

     total cpu time spent up to now is     4561.2 secs

     total energy              =   -2278.17173924 Ry
     estimated scf accuracy    <       0.00000942 Ry

     total magnetization       =     3.00 Bohr mag/cell
     absolute magnetization    =     3.71 Bohr mag/cell

     iteration #166     ecut=    58.80 Ry     beta= 0.30
     Davidson diagonalization with overlap
     ethr =  2.80E-09,  avg # of iterations =  4.0

     negative rho (up, down):  5.255E-02 4.938E-02

     total cpu time spent up to now is     4587.8 secs

     total energy              =   -2278.17175110 Ry
     estimated scf accuracy    <       0.00000944 Ry

     total magnetization       =     3.00 Bohr mag/cell
     absolute magnetization    =     3.71 Bohr mag/cell

     iteration #167     ecut=    58.80 Ry     beta= 0.30
     Davidson diagonalization with overlap
     ethr =  2.80E-09,  avg # of iterations =  4.0

     negative rho (up, down):  5.255E-02 4.938E-02

     total cpu time spent up to now is     4612.5 secs

     total energy              =   -2278.17173746 Ry
     estimated scf accuracy    <       0.00000951 Ry

     total magnetization       =     3.00 Bohr mag/cell
     absolute magnetization    =     3.71 Bohr mag/cell

     iteration #168     ecut=    58.80 Ry     beta= 0.30
     Davidson diagonalization with overlap
     ethr =  2.80E-09,  avg # of iterations =  4.5

     negative rho (up, down):  5.255E-02 4.938E-02

     total cpu time spent up to now is     4641.4 secs

     total energy              =   -2278.17174304 Ry
     estimated scf accuracy    <       0.00000925 Ry

     total magnetization       =     3.00 Bohr mag/cell
     absolute magnetization    =     3.71 Bohr mag/cell

     iteration #169     ecut=    58.80 Ry     beta= 0.30
     Davidson diagonalization with overlap
     ethr =  2.80E-09,  avg # of iterations =  3.5

     negative rho (up, down):  5.255E-02 4.938E-02

     total cpu time spent up to now is     4665.9 secs

     total energy              =   -2278.17172183 Ry
     estimated scf accuracy    <       0.00000941 Ry

     total magnetization       =     3.00 Bohr mag/cell
     absolute magnetization    =     3.71 Bohr mag/cell

     iteration #170     ecut=    58.80 Ry     beta= 0.30
     Davidson diagonalization with overlap
     ethr =  2.80E-09,  avg # of iterations =  5.0

     negative rho (up, down):  5.255E-02 4.938E-02

     total cpu time spent up to now is     4702.2 secs

     total energy              =   -2278.17175888 Ry
     estimated scf accuracy    <       0.00000900 Ry

     total magnetization       =     3.00 Bohr mag/cell
     absolute magnetization    =     3.71 Bohr mag/cell

     iteration #171     ecut=    58.80 Ry     beta= 0.30
     Davidson diagonalization with overlap
     ethr =  2.79E-09,  avg # of iterations =  4.5

     negative rho (up, down):  5.255E-02 4.938E-02

     total cpu time spent up to now is     4729.1 secs

     total energy              =   -2278.17176073 Ry
     estimated scf accuracy    <       0.00000894 Ry

     total magnetization       =     3.00 Bohr mag/cell
     absolute magnetization    =     3.71 Bohr mag/cell

     iteration #172     ecut=    58.80 Ry     beta= 0.30
     Davidson diagonalization with overlap
     ethr =  2.77E-09,  avg # of iterations =  3.5

     negative rho (up, down):  5.255E-02 4.938E-02

     total cpu time spent up to now is     4753.1 secs

     total energy              =   -2278.17176436 Ry
     estimated scf accuracy    <       0.00000894 Ry

     total magnetization       =     3.00 Bohr mag/cell
     absolute magnetization    =     3.71 Bohr mag/cell

     iteration #173     ecut=    58.80 Ry     beta= 0.30
     Davidson diagonalization with overlap
     ethr =  2.77E-09,  avg # of iterations =  3.0

     negative rho (up, down):  5.255E-02 4.938E-02

     total cpu time spent up to now is     4776.8 secs

     total energy              =   -2278.17167435 Ry
     estimated scf accuracy    <       0.00000884 Ry

     total magnetization       =     3.00 Bohr mag/cell
     absolute magnetization    =     3.71 Bohr mag/cell

     iteration #174     ecut=    58.80 Ry     beta= 0.30
     Davidson diagonalization with overlap
     ethr =  2.74E-09,  avg # of iterations =  4.5

     negative rho (up, down):  5.255E-02 4.938E-02

     total cpu time spent up to now is     4812.8 secs

     total energy              =   -2278.17175532 Ry
     estimated scf accuracy    <       0.00000885 Ry

     total magnetization       =     3.00 Bohr mag/cell
     absolute magnetization    =     3.71 Bohr mag/cell

     iteration #175     ecut=    58.80 Ry     beta= 0.30
     Davidson diagonalization with overlap
     ethr =  2.74E-09,  avg # of iterations =  4.5

     negative rho (up, down):  5.255E-02 4.938E-02

     total cpu time spent up to now is     4838.4 secs

     total energy              =   -2278.17176288 Ry
     estimated scf accuracy    <       0.00000875 Ry

     total magnetization       =     3.00 Bohr mag/cell
     absolute magnetization    =     3.71 Bohr mag/cell

     iteration #176     ecut=    58.80 Ry     beta= 0.30
     Davidson diagonalization with overlap
     ethr =  2.71E-09,  avg # of iterations =  4.5

     negative rho (up, down):  5.255E-02 4.938E-02

     total cpu time spent up to now is     4864.8 secs

     total energy              =   -2278.17176706 Ry
     estimated scf accuracy    <       0.00000876 Ry

     total magnetization       =     3.00 Bohr mag/cell
     absolute magnetization    =     3.71 Bohr mag/cell

     iteration #177     ecut=    58.80 Ry     beta= 0.30
     Davidson diagonalization with overlap
     ethr =  2.71E-09,  avg # of iterations =  2.0

     negative rho (up, down):  5.255E-02 4.938E-02

     total cpu time spent up to now is     4887.5 secs

     total energy              =   -2278.17176199 Ry
     estimated scf accuracy    <       0.00000900 Ry

     total magnetization       =     3.00 Bohr mag/cell
     absolute magnetization    =     3.71 Bohr mag/cell

     iteration #178     ecut=    58.80 Ry     beta= 0.30
     Davidson diagonalization with overlap
     ethr =  2.71E-09,  avg # of iterations =  4.0

     negative rho (up, down):  5.255E-02 4.938E-02

     total cpu time spent up to now is     4912.9 secs

     total energy              =   -2278.17167803 Ry
     estimated scf accuracy    <       0.00000895 Ry

     total magnetization       =     3.00 Bohr mag/cell
     absolute magnetization    =     3.71 Bohr mag/cell

     iteration #179     ecut=    58.80 Ry     beta= 0.30
     Davidson diagonalization with overlap
     ethr =  2.71E-09,  avg # of iterations =  5.0

     negative rho (up, down):  5.255E-02 4.938E-02

     total cpu time spent up to now is     4948.8 secs

     total energy              =   -2278.17173129 Ry
     estimated scf accuracy    <       0.00000934 Ry

     total magnetization       =     3.00 Bohr mag/cell
     absolute magnetization    =     3.72 Bohr mag/cell

     iteration #180     ecut=    58.80 Ry     beta= 0.30
     Davidson diagonalization with overlap
     ethr =  2.71E-09,  avg # of iterations =  2.5

     negative rho (up, down):  5.255E-02 4.938E-02

     total cpu time spent up to now is     4972.0 secs

     total energy              =   -2278.17171606 Ry
     estimated scf accuracy    <       0.00000930 Ry

     total magnetization       =     3.00 Bohr mag/cell
     absolute magnetization    =     3.72 Bohr mag/cell

     iteration #181     ecut=    58.80 Ry     beta= 0.30
     Davidson diagonalization with overlap
     ethr =  2.71E-09,  avg # of iterations =  4.0

     negative rho (up, down):  5.255E-02 4.938E-02

     total cpu time spent up to now is     4997.1 secs

     total energy              =   -2278.17172066 Ry
     estimated scf accuracy    <       0.00000955 Ry

     total magnetization       =     3.00 Bohr mag/cell
     absolute magnetization    =     3.72 Bohr mag/cell

     iteration #182     ecut=    58.80 Ry     beta= 0.30
     Davidson diagonalization with overlap
     ethr =  2.71E-09,  avg # of iterations =  4.5

     negative rho (up, down):  5.255E-02 4.938E-02

     total cpu time spent up to now is     5023.4 secs

     total energy              =   -2278.17172614 Ry
     estimated scf accuracy    <       0.00000949 Ry

     total magnetization       =     3.00 Bohr mag/cell
     absolute magnetization    =     3.72 Bohr mag/cell

     iteration #183     ecut=    58.80 Ry     beta= 0.30
     Davidson diagonalization with overlap
     ethr =  2.71E-09,  avg # of iterations =  4.5

     negative rho (up, down):  5.255E-02 4.938E-02

     total cpu time spent up to now is     5055.0 secs

     total energy              =   -2278.17175128 Ry
     estimated scf accuracy    <       0.00000922 Ry

     total magnetization       =     3.00 Bohr mag/cell
     absolute magnetization    =     3.71 Bohr mag/cell

     iteration #184     ecut=    58.80 Ry     beta= 0.30
     Davidson diagonalization with overlap
     ethr =  2.71E-09,  avg # of iterations =  2.5

     negative rho (up, down):  5.255E-02 4.938E-02

     total cpu time spent up to now is     5078.4 secs

     total energy              =   -2278.17174071 Ry
     estimated scf accuracy    <       0.00000886 Ry

     total magnetization       =     3.00 Bohr mag/cell
     absolute magnetization    =     3.71 Bohr mag/cell

     iteration #185     ecut=    58.80 Ry     beta= 0.30
     Davidson diagonalization with overlap
     ethr =  2.71E-09,  avg # of iterations =  4.5

     negative rho (up, down):  5.255E-02 4.938E-02

     total cpu time spent up to now is     5109.1 secs

     total energy              =   -2278.17174056 Ry
     estimated scf accuracy    <       0.00000894 Ry

     total magnetization       =     3.00 Bohr mag/cell
     absolute magnetization    =     3.71 Bohr mag/cell

     iteration #186     ecut=    58.80 Ry     beta= 0.30
     Davidson diagonalization with overlap
     ethr =  2.71E-09,  avg # of iterations =  4.5

     negative rho (up, down):  5.255E-02 4.938E-02

     total cpu time spent up to now is     5137.8 secs

     total energy              =   -2278.17171082 Ry
     estimated scf accuracy    <       0.00000922 Ry

     total magnetization       =     3.00 Bohr mag/cell
     absolute magnetization    =     3.72 Bohr mag/cell

     iteration #187     ecut=    58.80 Ry     beta= 0.30
     Davidson diagonalization with overlap
     ethr =  2.71E-09,  avg # of iterations =  4.5

     negative rho (up, down):  5.255E-02 4.938E-02

     total cpu time spent up to now is     5169.5 secs

     total energy              =   -2278.17171541 Ry
     estimated scf accuracy    <       0.00000954 Ry

     total magnetization       =     3.00 Bohr mag/cell
     absolute magnetization    =     3.71 Bohr mag/cell

     iteration #188     ecut=    58.80 Ry     beta= 0.30
     Davidson diagonalization with overlap
     ethr =  2.71E-09,  avg # of iterations =  4.5

     negative rho (up, down):  5.255E-02 4.938E-02

     total cpu time spent up to now is     5196.7 secs

     total energy              =   -2278.17172726 Ry
     estimated scf accuracy    <       0.00000943 Ry

     total magnetization       =     3.00 Bohr mag/cell
     absolute magnetization    =     3.71 Bohr mag/cell

     iteration #189     ecut=    58.80 Ry     beta= 0.30
     Davidson diagonalization with overlap
     ethr =  2.71E-09,  avg # of iterations =  2.5

     negative rho (up, down):  5.255E-02 4.938E-02

     total cpu time spent up to now is     5219.8 secs

     total energy              =   -2278.17172467 Ry
     estimated scf accuracy    <       0.00000929 Ry

     total magnetization       =     3.00 Bohr mag/cell
     absolute magnetization    =     3.71 Bohr mag/cell

     iteration #190     ecut=    58.80 Ry     beta= 0.30
     Davidson diagonalization with overlap
     ethr =  2.71E-09,  avg # of iterations =  3.5

     negative rho (up, down):  5.255E-02 4.938E-02

     total cpu time spent up to now is     5246.2 secs

     total energy              =   -2278.17166091 Ry
     estimated scf accuracy    <       0.00000947 Ry

     total magnetization       =     3.00 Bohr mag/cell
     absolute magnetization    =     3.71 Bohr mag/cell

     iteration #191     ecut=    58.80 Ry     beta= 0.30
     Davidson diagonalization with overlap
     ethr =  2.71E-09,  avg # of iterations =  4.5

     negative rho (up, down):  5.255E-02 4.938E-02

     total cpu time spent up to now is     5280.2 secs

     total energy              =   -2278.17171687 Ry
     estimated scf accuracy    <       0.00000964 Ry

     total magnetization       =     3.00 Bohr mag/cell
     absolute magnetization    =     3.71 Bohr mag/cell

     iteration #192     ecut=    58.80 Ry     beta= 0.30
     Davidson diagonalization with overlap
     ethr =  2.71E-09,  avg # of iterations =  2.5

     negative rho (up, down):  5.255E-02 4.938E-02

     total cpu time spent up to now is     5303.5 secs

     total energy              =   -2278.17166161 Ry
     estimated scf accuracy    <       0.00000975 Ry

     total magnetization       =     3.00 Bohr mag/cell
     absolute magnetization    =     3.71 Bohr mag/cell

     iteration #193     ecut=    58.80 Ry     beta= 0.30
     Davidson diagonalization with overlap
     ethr =  2.71E-09,  avg # of iterations =  5.0

     negative rho (up, down):  5.255E-02 4.938E-02

     total cpu time spent up to now is     5341.9 secs

     total energy              =   -2278.17177583 Ry
     estimated scf accuracy    <       0.00000906 Ry

     total magnetization       =     3.00 Bohr mag/cell
     absolute magnetization    =     3.71 Bohr mag/cell

     iteration #194     ecut=    58.80 Ry     beta= 0.30
     Davidson diagonalization with overlap
     ethr =  2.71E-09,  avg # of iterations =  4.0

     negative rho (up, down):  5.255E-02 4.938E-02

     total cpu time spent up to now is     5368.7 secs

     total energy              =   -2278.17178028 Ry
     estimated scf accuracy    <       0.00000875 Ry

     total magnetization       =     3.00 Bohr mag/cell
     absolute magnetization    =     3.71 Bohr mag/cell

     iteration #195     ecut=    58.80 Ry     beta= 0.30
     Davidson diagonalization with overlap
     ethr =  2.71E-09,  avg # of iterations =  2.5

     negative rho (up, down):  5.255E-02 4.938E-02

     total cpu time spent up to now is     5392.0 secs

     total energy              =   -2278.17177861 Ry
     estimated scf accuracy    <       0.00000873 Ry

     total magnetization       =     3.00 Bohr mag/cell
     absolute magnetization    =     3.71 Bohr mag/cell

     iteration #196     ecut=    58.80 Ry     beta= 0.30
     Davidson diagonalization with overlap
     ethr =  2.70E-09,  avg # of iterations =  2.5

     negative rho (up, down):  5.255E-02 4.938E-02

     total cpu time spent up to now is     5415.3 secs

     total energy              =   -2278.17162956 Ry
     estimated scf accuracy    <       0.00000895 Ry

     total magnetization       =     3.00 Bohr mag/cell
     absolute magnetization    =     3.71 Bohr mag/cell

     iteration #197     ecut=    58.80 Ry     beta= 0.30
     Davidson diagonalization with overlap
     ethr =  2.70E-09,  avg # of iterations =  5.0

     negative rho (up, down):  5.255E-02 4.938E-02

     total cpu time spent up to now is     5453.5 secs

     total energy              =   -2278.17170154 Ry
     estimated scf accuracy    <       0.00000914 Ry

     total magnetization       =     3.00 Bohr mag/cell
     absolute magnetization    =     3.71 Bohr mag/cell

     iteration #198     ecut=    58.80 Ry     beta= 0.30
     Davidson diagonalization with overlap
     ethr =  2.70E-09,  avg # of iterations =  4.0

     negative rho (up, down):  5.255E-02 4.938E-02

     total cpu time spent up to now is     5479.9 secs

     total energy              =   -2278.17170933 Ry
     estimated scf accuracy    <       0.00000919 Ry

     total magnetization       =     3.00 Bohr mag/cell
     absolute magnetization    =     3.71 Bohr mag/cell

     iteration #199     ecut=    58.80 Ry     beta= 0.30
     Davidson diagonalization with overlap
     ethr =  2.70E-09,  avg # of iterations =  4.0

     negative rho (up, down):  5.255E-02 4.938E-02

     total cpu time spent up to now is     5508.9 secs

     total energy              =   -2278.17171569 Ry
     estimated scf accuracy    <       0.00000869 Ry

     total magnetization       =     3.00 Bohr mag/cell
     absolute magnetization    =     3.71 Bohr mag/cell

     iteration #200     ecut=    58.80 Ry     beta= 0.30
     Davidson diagonalization with overlap
     ethr =  2.69E-09,  avg # of iterations =  4.0

     negative rho (up, down):  5.255E-02 4.938E-02

     total cpu time spent up to now is     5535.1 secs

     total energy              =   -2278.17171021 Ry
     estimated scf accuracy    <       0.00000849 Ry

     total magnetization       =     3.00 Bohr mag/cell
     absolute magnetization    =     3.71 Bohr mag/cell

     iteration #201     ecut=    58.80 Ry     beta= 0.30
     Davidson diagonalization with overlap
     ethr =  2.63E-09,  avg # of iterations =  4.5

     negative rho (up, down):  5.255E-02 4.938E-02

     total cpu time spent up to now is     5567.9 secs

     total energy              =   -2278.17171875 Ry
     estimated scf accuracy    <       0.00000786 Ry

     total magnetization       =     3.00 Bohr mag/cell
     absolute magnetization    =     3.71 Bohr mag/cell

     iteration #202     ecut=    58.80 Ry     beta= 0.30
     Davidson diagonalization with overlap
     ethr =  2.43E-09,  avg # of iterations =  4.5

     negative rho (up, down):  5.255E-02 4.939E-02

     total cpu time spent up to now is     5598.7 secs

     total energy              =   -2278.17166647 Ry
     estimated scf accuracy    <       0.00000742 Ry

     total magnetization       =     3.00 Bohr mag/cell
     absolute magnetization    =     3.71 Bohr mag/cell

     iteration #203     ecut=    58.80 Ry     beta= 0.30
     Davidson diagonalization with overlap
     ethr =  2.30E-09,  avg # of iterations =  5.0

     negative rho (up, down):  5.255E-02 4.939E-02

     total cpu time spent up to now is     5636.2 secs

     total energy              =   -2278.17164620 Ry
     estimated scf accuracy    <       0.00000651 Ry

     total magnetization       =     3.00 Bohr mag/cell
     absolute magnetization    =     3.72 Bohr mag/cell

     iteration #204     ecut=    58.80 Ry     beta= 0.30
     Davidson diagonalization with overlap
     ethr =  2.02E-09,  avg # of iterations =  5.0

     negative rho (up, down):  5.255E-02 4.940E-02

     total cpu time spent up to now is     5676.2 secs

     total energy              =   -2278.17173390 Ry
     estimated scf accuracy    <       0.00000589 Ry

     total magnetization       =     3.00 Bohr mag/cell
     absolute magnetization    =     3.72 Bohr mag/cell

     iteration #205     ecut=    58.80 Ry     beta= 0.30
     Davidson diagonalization with overlap
     ethr =  1.82E-09,  avg # of iterations =  4.5

     negative rho (up, down):  5.255E-02 4.940E-02

     total cpu time spent up to now is     5706.3 secs

     total energy              =   -2278.17166876 Ry
     estimated scf accuracy    <       0.00000557 Ry

     total magnetization       =     3.00 Bohr mag/cell
     absolute magnetization    =     3.72 Bohr mag/cell

     iteration #206     ecut=    58.80 Ry     beta= 0.30
     Davidson diagonalization with overlap
     ethr =  1.72E-09,  avg # of iterations =  5.0

     negative rho (up, down):  5.255E-02 4.940E-02

     total cpu time spent up to now is     5746.8 secs

     total energy              =   -2278.17163843 Ry
     estimated scf accuracy    <       0.00000437 Ry

     total magnetization       =     3.00 Bohr mag/cell
     absolute magnetization    =     3.72 Bohr mag/cell

     iteration #207     ecut=    58.80 Ry     beta= 0.30
     Davidson diagonalization with overlap
     ethr =  1.35E-09,  avg # of iterations =  5.0

     negative rho (up, down):  5.255E-02 4.940E-02

     total cpu time spent up to now is     5787.7 secs

     total energy              =   -2278.17173042 Ry
     estimated scf accuracy    <       0.00000373 Ry

     total magnetization       =     3.00 Bohr mag/cell
     absolute magnetization    =     3.72 Bohr mag/cell

     iteration #208     ecut=    58.80 Ry     beta= 0.30
     Davidson diagonalization with overlap
     ethr =  1.16E-09,  avg # of iterations =  4.5

     negative rho (up, down):  5.255E-02 4.940E-02

     total cpu time spent up to now is     5824.3 secs

     total energy              =   -2278.17172577 Ry
     estimated scf accuracy    <       0.00000315 Ry

     total magnetization       =     3.00 Bohr mag/cell
     absolute magnetization    =     3.72 Bohr mag/cell

     iteration #209     ecut=    58.80 Ry     beta= 0.30
     Davidson diagonalization with overlap
     ethr =  9.75E-10,  avg # of iterations =  4.5

     negative rho (up, down):  5.255E-02 4.941E-02

     total cpu time spent up to now is     5862.0 secs

     total energy              =   -2278.17174624 Ry
     estimated scf accuracy    <       0.00000257 Ry

     total magnetization       =     3.00 Bohr mag/cell
     absolute magnetization    =     3.72 Bohr mag/cell

     iteration #210     ecut=    58.80 Ry     beta= 0.30
     Davidson diagonalization with overlap
     ethr =  7.97E-10,  avg # of iterations =  4.5

     negative rho (up, down):  5.255E-02 4.940E-02

     total cpu time spent up to now is     5899.4 secs

     total energy              =   -2278.17175879 Ry
     estimated scf accuracy    <       0.00000206 Ry

     total magnetization       =     3.00 Bohr mag/cell
     absolute magnetization    =     3.72 Bohr mag/cell

     iteration #211     ecut=    58.80 Ry     beta= 0.30
     Davidson diagonalization with overlap
     ethr =  6.36E-10,  avg # of iterations =  4.5

     negative rho (up, down):  5.255E-02 4.941E-02

     total cpu time spent up to now is     5932.2 secs

     total energy              =   -2278.17170052 Ry
     estimated scf accuracy    <       0.00000185 Ry

     total magnetization       =     3.00 Bohr mag/cell
     absolute magnetization    =     3.72 Bohr mag/cell

     iteration #212     ecut=    58.80 Ry     beta= 0.30
     Davidson diagonalization with overlap
     ethr =  5.74E-10,  avg # of iterations =  5.0

     negative rho (up, down):  5.255E-02 4.941E-02

     total cpu time spent up to now is     5975.0 secs

     total energy              =   -2278.17176793 Ry
     estimated scf accuracy    <       0.00000122 Ry

     total magnetization       =     3.00 Bohr mag/cell
     absolute magnetization    =     3.72 Bohr mag/cell

     iteration #213     ecut=    58.80 Ry     beta= 0.30
     Davidson diagonalization with overlap
     ethr =  3.77E-10,  avg # of iterations =  5.0

     negative rho (up, down):  5.255E-02 4.940E-02

     total cpu time spent up to now is     6012.4 secs

     total energy              =   -2278.17176973 Ry
     estimated scf accuracy    <       0.00000101 Ry

     total magnetization       =     3.00 Bohr mag/cell
     absolute magnetization    =     3.72 Bohr mag/cell

     iteration #214     ecut=    58.80 Ry     beta= 0.30
     Davidson diagonalization with overlap
     ethr =  3.12E-10,  avg # of iterations =  5.0

     negative rho (up, down):  5.255E-02 4.940E-02

     total cpu time spent up to now is     6049.8 secs

     total energy              =   -2278.17176349 Ry
     estimated scf accuracy    <       0.00000081 Ry

     total magnetization       =     3.00 Bohr mag/cell
     absolute magnetization    =     3.72 Bohr mag/cell

     iteration #215     ecut=    58.80 Ry     beta= 0.30
     Davidson diagonalization with overlap
     ethr =  2.51E-10,  avg # of iterations =  5.0

     negative rho (up, down):  5.255E-02 4.940E-02

     total cpu time spent up to now is     6091.3 secs

     total energy              =   -2278.17177559 Ry
     estimated scf accuracy    <       0.00000061 Ry

     total magnetization       =     3.00 Bohr mag/cell
     absolute magnetization    =     3.72 Bohr mag/cell

     iteration #216     ecut=    58.80 Ry     beta= 0.30
     Davidson diagonalization with overlap
     ethr =  1.89E-10,  avg # of iterations =  4.5

     negative rho (up, down):  5.255E-02 4.940E-02

     total cpu time spent up to now is     6128.3 secs

     total energy              =   -2278.17177696 Ry
     estimated scf accuracy    <       0.00000051 Ry

     total magnetization       =     3.00 Bohr mag/cell
     absolute magnetization    =     3.72 Bohr mag/cell

     iteration #217     ecut=    58.80 Ry     beta= 0.30
     Davidson diagonalization with overlap
     ethr =  1.57E-10,  avg # of iterations =  5.0

     negative rho (up, down):  5.255E-02 4.940E-02

     total cpu time spent up to now is     6168.5 secs

     total energy              =   -2278.17177788 Ry
     estimated scf accuracy    <       0.00000039 Ry

     total magnetization       =     3.00 Bohr mag/cell
     absolute magnetization    =     3.72 Bohr mag/cell

     iteration #218     ecut=    58.80 Ry     beta= 0.30
     Davidson diagonalization with overlap
     ethr =  1.21E-10,  avg # of iterations =  5.0

     negative rho (up, down):  5.255E-02 4.940E-02

     total cpu time spent up to now is     6209.5 secs

     total energy              =   -2278.17178160 Ry
     estimated scf accuracy    <       0.00000029 Ry

     total magnetization       =     3.00 Bohr mag/cell
     absolute magnetization    =     3.72 Bohr mag/cell

     iteration #219     ecut=    58.80 Ry     beta= 0.30
     Davidson diagonalization with overlap
     ethr =  8.94E-11,  avg # of iterations =  5.0

     negative rho (up, down):  5.255E-02 4.940E-02

     total cpu time spent up to now is     6251.0 secs

     total energy              =   -2278.17178650 Ry
     estimated scf accuracy    <       0.00000022 Ry

     total magnetization       =     3.00 Bohr mag/cell
     absolute magnetization    =     3.72 Bohr mag/cell

     iteration #220     ecut=    58.80 Ry     beta= 0.30
     Davidson diagonalization with overlap
     ethr =  6.76E-11,  avg # of iterations =  4.5

     negative rho (up, down):  5.255E-02 4.940E-02

     total cpu time spent up to now is     6288.0 secs

     total energy              =   -2278.17178486 Ry
     estimated scf accuracy    <       0.00000019 Ry

     total magnetization       =     3.00 Bohr mag/cell
     absolute magnetization    =     3.72 Bohr mag/cell

     iteration #221     ecut=    58.80 Ry     beta= 0.30
     Davidson diagonalization with overlap
     ethr =  5.84E-11,  avg # of iterations =  5.0

     negative rho (up, down):  5.255E-02 4.940E-02

     total cpu time spent up to now is     6329.0 secs

     total energy              =   -2278.17178753 Ry
     estimated scf accuracy    <       0.00000015 Ry

     total magnetization       =     3.00 Bohr mag/cell
     absolute magnetization    =     3.72 Bohr mag/cell

     iteration #222     ecut=    58.80 Ry     beta= 0.30
     Davidson diagonalization with overlap
     ethr =  4.57E-11,  avg # of iterations =  4.5

     negative rho (up, down):  5.255E-02 4.940E-02

     total cpu time spent up to now is     6366.5 secs

     total energy              =   -2278.17178553 Ry
     estimated scf accuracy    <       0.00000012 Ry

     total magnetization       =     3.00 Bohr mag/cell
     absolute magnetization    =     3.72 Bohr mag/cell

     iteration #223     ecut=    58.80 Ry     beta= 0.30
     Davidson diagonalization with overlap
     ethr =  3.85E-11,  avg # of iterations =  5.0

     negative rho (up, down):  5.255E-02 4.940E-02

     total cpu time spent up to now is     6408.7 secs

     total energy              =   -2278.17178826 Ry
     estimated scf accuracy    <       0.00000010 Ry

     total magnetization       =     3.00 Bohr mag/cell
     absolute magnetization    =     3.72 Bohr mag/cell

     iteration #224     ecut=    58.80 Ry     beta= 0.30
     Davidson diagonalization with overlap
     ethr =  3.03E-11,  avg # of iterations =  4.5

     negative rho (up, down):  5.255E-02 4.940E-02

     total cpu time spent up to now is     6446.9 secs

     total energy              =   -2278.17178953 Ry
     estimated scf accuracy    <       0.00000009 Ry

     total magnetization       =     3.00 Bohr mag/cell
     absolute magnetization    =     3.72 Bohr mag/cell

     iteration #225     ecut=    58.80 Ry     beta= 0.30
     Davidson diagonalization with overlap
     ethr =  2.72E-11,  avg # of iterations =  4.5

     negative rho (up, down):  5.255E-02 4.940E-02

     total cpu time spent up to now is     6478.8 secs

     total energy              =   -2278.17178910 Ry
     estimated scf accuracy    <       0.00000008 Ry

     total magnetization       =     3.00 Bohr mag/cell
     absolute magnetization    =     3.72 Bohr mag/cell

     iteration #226     ecut=    58.80 Ry     beta= 0.30
     Davidson diagonalization with overlap
     ethr =  2.51E-11,  avg # of iterations =  5.0

     negative rho (up, down):  5.255E-02 4.940E-02

     total cpu time spent up to now is     6517.4 secs

     total energy              =   -2278.17178953 Ry
     estimated scf accuracy    <       0.00000007 Ry

     total magnetization       =     3.00 Bohr mag/cell
     absolute magnetization    =     3.72 Bohr mag/cell

     iteration #227     ecut=    58.80 Ry     beta= 0.30
     Davidson diagonalization with overlap
     ethr =  2.16E-11,  avg # of iterations =  5.0

     negative rho (up, down):  5.255E-02 4.940E-02

     total cpu time spent up to now is     6552.2 secs

     total energy              =   -2278.17178948 Ry
     estimated scf accuracy    <       0.00000006 Ry

     total magnetization       =     3.00 Bohr mag/cell
     absolute magnetization    =     3.72 Bohr mag/cell

     iteration #228     ecut=    58.80 Ry     beta= 0.30
     Davidson diagonalization with overlap
     ethr =  2.00E-11,  avg # of iterations =  4.5

     negative rho (up, down):  5.255E-02 4.940E-02

     total cpu time spent up to now is     6587.9 secs

     total energy              =   -2278.17178968 Ry
     estimated scf accuracy    <       0.00000006 Ry

     total magnetization       =     3.00 Bohr mag/cell
     absolute magnetization    =     3.72 Bohr mag/cell

     iteration #229     ecut=    58.80 Ry     beta= 0.30
     Davidson diagonalization with overlap
     ethr =  1.87E-11,  avg # of iterations =  4.5

     negative rho (up, down):  5.255E-02 4.940E-02

     total cpu time spent up to now is     6618.5 secs

     total energy              =   -2278.17178974 Ry
     estimated scf accuracy    <       0.00000006 Ry

     total magnetization       =     3.00 Bohr mag/cell
     absolute magnetization    =     3.72 Bohr mag/cell

     iteration #230     ecut=    58.80 Ry     beta= 0.30
     Davidson diagonalization with overlap
     ethr =  1.78E-11,  avg # of iterations =  4.5

     negative rho (up, down):  5.255E-02 4.940E-02

     total cpu time spent up to now is     6647.7 secs

     total energy              =   -2278.17178985 Ry
     estimated scf accuracy    <       0.00000006 Ry

     total magnetization       =     3.00 Bohr mag/cell
     absolute magnetization    =     3.72 Bohr mag/cell

     iteration #231     ecut=    58.80 Ry     beta= 0.30
     Davidson diagonalization with overlap
     ethr =  1.74E-11,  avg # of iterations =  3.5

     negative rho (up, down):  5.255E-02 4.940E-02

     total cpu time spent up to now is     6672.6 secs

     total energy              =   -2278.17178988 Ry
     estimated scf accuracy    <       0.00000006 Ry

     total magnetization       =     3.00 Bohr mag/cell
     absolute magnetization    =     3.72 Bohr mag/cell

     iteration #232     ecut=    58.80 Ry     beta= 0.30
     Davidson diagonalization with overlap
     ethr =  1.73E-11,  avg # of iterations =  2.0

     negative rho (up, down):  5.255E-02 4.940E-02

     total cpu time spent up to now is     6695.5 secs

     total energy              =   -2278.17178989 Ry
     estimated scf accuracy    <       0.00000006 Ry

     total magnetization       =     3.00 Bohr mag/cell
     absolute magnetization    =     3.72 Bohr mag/cell

     iteration #233     ecut=    58.80 Ry     beta= 0.30
     Davidson diagonalization with overlap
     ethr =  1.73E-11,  avg # of iterations =  2.5

     negative rho (up, down):  5.255E-02 4.940E-02

     total cpu time spent up to now is     6718.7 secs

     total energy              =   -2278.17178989 Ry
     estimated scf accuracy    <       0.00000006 Ry

     total magnetization       =     3.00 Bohr mag/cell
     absolute magnetization    =     3.72 Bohr mag/cell

     iteration #234     ecut=    58.80 Ry     beta= 0.30
     Davidson diagonalization with overlap
     ethr =  1.73E-11,  avg # of iterations =  1.0

     negative rho (up, down):  5.255E-02 4.940E-02

     total cpu time spent up to now is     6740.7 secs

     total energy              =   -2278.17178982 Ry
     estimated scf accuracy    <       0.00000006 Ry

     total magnetization       =     3.00 Bohr mag/cell
     absolute magnetization    =     3.72 Bohr mag/cell

     iteration #235     ecut=    58.80 Ry     beta= 0.30
     Davidson diagonalization with overlap
     ethr =  1.73E-11,  avg # of iterations =  3.5

     negative rho (up, down):  5.255E-02 4.940E-02

     total cpu time spent up to now is     6767.4 secs

     total energy              =   -2278.17178958 Ry
     estimated scf accuracy    <       0.00000006 Ry

     total magnetization       =     3.00 Bohr mag/cell
     absolute magnetization    =     3.72 Bohr mag/cell

     iteration #236     ecut=    58.80 Ry     beta= 0.30
     Davidson diagonalization with overlap
     ethr =  1.73E-11,  avg # of iterations =  4.5

     negative rho (up, down):  5.255E-02 4.940E-02

     total cpu time spent up to now is     6799.4 secs

     total energy              =   -2278.17178964 Ry
     estimated scf accuracy    <       0.00000006 Ry

     total magnetization       =     3.00 Bohr mag/cell
     absolute magnetization    =     3.72 Bohr mag/cell

     iteration #237     ecut=    58.80 Ry     beta= 0.30
     Davidson diagonalization with overlap
     ethr =  1.73E-11,  avg # of iterations =  4.5

     negative rho (up, down):  5.255E-02 4.940E-02

     total cpu time spent up to now is     6828.2 secs

     total energy              =   -2278.17178959 Ry
     estimated scf accuracy    <       0.00000007 Ry

     total magnetization       =     3.00 Bohr mag/cell
     absolute magnetization    =     3.72 Bohr mag/cell

     iteration #238     ecut=    58.80 Ry     beta= 0.30
     Davidson diagonalization with overlap
     ethr =  1.73E-11,  avg # of iterations =  4.0

     negative rho (up, down):  5.255E-02 4.940E-02

     total cpu time spent up to now is     6856.4 secs

     total energy              =   -2278.17178943 Ry
     estimated scf accuracy    <       0.00000009 Ry

     total magnetization       =     3.00 Bohr mag/cell
     absolute magnetization    =     3.72 Bohr mag/cell

     iteration #239     ecut=    58.80 Ry     beta= 0.30
     Davidson diagonalization with overlap
     ethr =  1.73E-11,  avg # of iterations =  4.5

     negative rho (up, down):  5.255E-02 4.940E-02

     total cpu time spent up to now is     6888.3 secs

     total energy              =   -2278.17178959 Ry
     estimated scf accuracy    <       0.00000011 Ry

     total magnetization       =     3.00 Bohr mag/cell
     absolute magnetization    =     3.72 Bohr mag/cell

     iteration #240     ecut=    58.80 Ry     beta= 0.30
     Davidson diagonalization with overlap
     ethr =  1.73E-11,  avg # of iterations =  4.5

     negative rho (up, down):  5.255E-02 4.940E-02

     total cpu time spent up to now is     6916.8 secs

     total energy              =   -2278.17178966 Ry
     estimated scf accuracy    <       0.00000010 Ry

     total magnetization       =     3.00 Bohr mag/cell
     absolute magnetization    =     3.72 Bohr mag/cell

     iteration #241     ecut=    58.80 Ry     beta= 0.30
     Davidson diagonalization with overlap
     ethr =  1.73E-11,  avg # of iterations =  4.0

     negative rho (up, down):  5.255E-02 4.940E-02

     total cpu time spent up to now is     6942.5 secs

     total energy              =   -2278.17178755 Ry
     estimated scf accuracy    <       0.00000011 Ry

     total magnetization       =     3.00 Bohr mag/cell
     absolute magnetization    =     3.72 Bohr mag/cell

     iteration #242     ecut=    58.80 Ry     beta= 0.30
     Davidson diagonalization with overlap
     ethr =  1.73E-11,  avg # of iterations =  5.5

     negative rho (up, down):  5.255E-02 4.940E-02

     total cpu time spent up to now is     6985.8 secs

     total energy              =   -2278.17178339 Ry
     estimated scf accuracy    <       0.00000018 Ry

     total magnetization       =     3.00 Bohr mag/cell
     absolute magnetization    =     3.72 Bohr mag/cell

     iteration #243     ecut=    58.80 Ry     beta= 0.30
     Davidson diagonalization with overlap
     ethr =  1.73E-11,  avg # of iterations =  5.5

     negative rho (up, down):  5.255E-02 4.940E-02

     total cpu time spent up to now is     7034.4 secs

     total energy              =   -2278.17178979 Ry
     estimated scf accuracy    <       0.00000005 Ry

     total magnetization       =     3.00 Bohr mag/cell
     absolute magnetization    =     3.72 Bohr mag/cell

     iteration #244     ecut=    58.80 Ry     beta= 0.30
     Davidson diagonalization with overlap
     ethr =  1.68E-11,  avg # of iterations =  4.0

     negative rho (up, down):  5.255E-02 4.940E-02

     total cpu time spent up to now is     7059.9 secs

     total energy              =   -2278.17178976 Ry
     estimated scf accuracy    <       0.00000005 Ry

     total magnetization       =     3.00 Bohr mag/cell
     absolute magnetization    =     3.72 Bohr mag/cell

     iteration #245     ecut=    58.80 Ry     beta= 0.30
     Davidson diagonalization with overlap
     ethr =  1.64E-11,  avg # of iterations =  4.5

     negative rho (up, down):  5.255E-02 4.940E-02

     total cpu time spent up to now is     7086.9 secs

     total energy              =   -2278.17178960 Ry
     estimated scf accuracy    <       0.00000005 Ry

     total magnetization       =     3.00 Bohr mag/cell
     absolute magnetization    =     3.72 Bohr mag/cell

     iteration #246     ecut=    58.80 Ry     beta= 0.30
     Davidson diagonalization with overlap
     ethr =  1.58E-11,  avg # of iterations =  4.5

     negative rho (up, down):  5.255E-02 4.940E-02

     total cpu time spent up to now is     7117.5 secs

     total energy              =   -2278.17178971 Ry
     estimated scf accuracy    <       0.00000005 Ry

     total magnetization       =     3.00 Bohr mag/cell
     absolute magnetization    =     3.72 Bohr mag/cell

     iteration #247     ecut=    58.80 Ry     beta= 0.30
     Davidson diagonalization with overlap
     ethr =  1.50E-11,  avg # of iterations =  4.5

     negative rho (up, down):  5.255E-02 4.940E-02

     total cpu time spent up to now is     7146.0 secs

     total energy              =   -2278.17178935 Ry
     estimated scf accuracy    <       0.00000004 Ry

     total magnetization       =     3.00 Bohr mag/cell
     absolute magnetization    =     3.72 Bohr mag/cell

     iteration #248     ecut=    58.80 Ry     beta= 0.30
     Davidson diagonalization with overlap
     ethr =  1.38E-11,  avg # of iterations =  4.5

     negative rho (up, down):  5.255E-02 4.940E-02

     total cpu time spent up to now is     7181.8 secs

     total energy              =   -2278.17178982 Ry
     estimated scf accuracy    <       0.00000004 Ry

     total magnetization       =     3.00 Bohr mag/cell
     absolute magnetization    =     3.72 Bohr mag/cell

     iteration #249     ecut=    58.80 Ry     beta= 0.30
     Davidson diagonalization with overlap
     ethr =  1.22E-11,  avg # of iterations =  4.5

     negative rho (up, down):  5.255E-02 4.940E-02

     total cpu time spent up to now is     7212.1 secs

     total energy              =   -2278.17178992 Ry
     estimated scf accuracy    <       0.00000004 Ry

     total magnetization       =     3.00 Bohr mag/cell
     absolute magnetization    =     3.72 Bohr mag/cell

     iteration #250     ecut=    58.80 Ry     beta= 0.30
     Davidson diagonalization with overlap
     ethr =  1.13E-11,  avg # of iterations =  4.5

     negative rho (up, down):  5.255E-02 4.940E-02

     total cpu time spent up to now is     7244.1 secs

     total energy              =   -2278.17178999 Ry
     estimated scf accuracy    <       0.00000003 Ry

     total magnetization       =     3.00 Bohr mag/cell
     absolute magnetization    =     3.72 Bohr mag/cell

     iteration #251     ecut=    58.80 Ry     beta= 0.30
     Davidson diagonalization with overlap
     ethr =  1.03E-11,  avg # of iterations =  4.5

     negative rho (up, down):  5.255E-02 4.940E-02

     total cpu time spent up to now is     7277.5 secs

     total energy              =   -2278.17178979 Ry
     estimated scf accuracy    <       0.00000003 Ry

     total magnetization       =     3.00 Bohr mag/cell
     absolute magnetization    =     3.72 Bohr mag/cell

     iteration #252     ecut=    58.80 Ry     beta= 0.30
     Davidson diagonalization with overlap
     ethr =  9.01E-12,  avg # of iterations =  5.5

     negative rho (up, down):  5.255E-02 4.940E-02

     total cpu time spent up to now is     7317.7 secs

     total energy              =   -2278.17178941 Ry
     estimated scf accuracy    <       0.00000002 Ry

     total magnetization       =     3.00 Bohr mag/cell
     absolute magnetization    =     3.72 Bohr mag/cell

     iteration #253     ecut=    58.80 Ry     beta= 0.30
     Davidson diagonalization with overlap
     ethr =  6.94E-12,  avg # of iterations =  5.5

     negative rho (up, down):  5.255E-02 4.940E-02

     total cpu time spent up to now is     7361.3 secs

     total energy              =   -2278.17179021 Ry
     estimated scf accuracy    <       0.00000002 Ry

     total magnetization       =     3.00 Bohr mag/cell
     absolute magnetization    =     3.72 Bohr mag/cell

     iteration #254     ecut=    58.80 Ry     beta= 0.30
     Davidson diagonalization with overlap
     ethr =  4.77E-12,  avg # of iterations =  5.0

     negative rho (up, down):  5.255E-02 4.940E-02

     total cpu time spent up to now is     7401.5 secs

     total energy              =   -2278.17179047 Ry
     estimated scf accuracy    <       0.00000001 Ry

     total magnetization       =     3.00 Bohr mag/cell
     absolute magnetization    =     3.72 Bohr mag/cell

     iteration #255     ecut=    58.80 Ry     beta= 0.30
     Davidson diagonalization with overlap
     ethr =  3.75E-12,  avg # of iterations =  5.0

     negative rho (up, down):  5.255E-02 4.940E-02

     total cpu time spent up to now is     7439.1 secs

     total energy              =   -2278.17179048 Ry
     estimated scf accuracy    <       0.00000001 Ry

     total magnetization       =     3.00 Bohr mag/cell
     absolute magnetization    =     3.72 Bohr mag/cell

     iteration #256     ecut=    58.80 Ry     beta= 0.30
     Davidson diagonalization with overlap
     ethr =  3.18E-12,  avg # of iterations =  5.0

     negative rho (up, down):  5.255E-02 4.940E-02

     total cpu time spent up to now is     7476.6 secs

     total energy              =   -2278.17179053 Ry
     estimated scf accuracy    <          9.3E-09 Ry

     total magnetization       =     3.00 Bohr mag/cell
     absolute magnetization    =     3.72 Bohr mag/cell

     iteration #257     ecut=    58.80 Ry     beta= 0.30
     Davidson diagonalization with overlap
     ethr =  2.87E-12,  avg # of iterations =  4.5

     negative rho (up, down):  5.255E-02 4.940E-02

     total cpu time spent up to now is     7511.3 secs

     total energy              =   -2278.17179051 Ry
     estimated scf accuracy    <          8.4E-09 Ry

     total magnetization       =     3.00 Bohr mag/cell
     absolute magnetization    =     3.72 Bohr mag/cell

     iteration #258     ecut=    58.80 Ry     beta= 0.30
     Davidson diagonalization with overlap
     ethr =  2.61E-12,  avg # of iterations =  4.5

     negative rho (up, down):  5.255E-02 4.940E-02

     total cpu time spent up to now is     7546.7 secs

     total energy              =   -2278.17179050 Ry
     estimated scf accuracy    <          7.8E-09 Ry

     total magnetization       =     3.00 Bohr mag/cell
     absolute magnetization    =     3.72 Bohr mag/cell

     iteration #259     ecut=    58.80 Ry     beta= 0.30
     Davidson diagonalization with overlap
     ethr =  2.42E-12,  avg # of iterations =  4.5

     negative rho (up, down):  5.255E-02 4.940E-02

     total cpu time spent up to now is     7581.5 secs

     total energy              =   -2278.17179047 Ry
     estimated scf accuracy    <          7.2E-09 Ry

     total magnetization       =     3.00 Bohr mag/cell
     absolute magnetization    =     3.72 Bohr mag/cell

     iteration #260     ecut=    58.80 Ry     beta= 0.30
     Davidson diagonalization with overlap
     ethr =  2.23E-12,  avg # of iterations =  4.5

     negative rho (up, down):  5.255E-02 4.940E-02

     total cpu time spent up to now is     7618.1 secs

     total energy              =   -2278.17179047 Ry
     estimated scf accuracy    <          6.6E-09 Ry

     total magnetization       =     3.00 Bohr mag/cell
     absolute magnetization    =     3.72 Bohr mag/cell

     iteration #261     ecut=    58.80 Ry     beta= 0.30
     Davidson diagonalization with overlap
     ethr =  2.03E-12,  avg # of iterations =  5.0

     negative rho (up, down):  5.255E-02 4.940E-02

     total cpu time spent up to now is     7654.9 secs

     total energy              =   -2278.17179049 Ry
     estimated scf accuracy    <          6.1E-09 Ry

     total magnetization       =     3.00 Bohr mag/cell
     absolute magnetization    =     3.72 Bohr mag/cell

     iteration #262     ecut=    58.80 Ry     beta= 0.30
     Davidson diagonalization with overlap
     ethr =  1.88E-12,  avg # of iterations =  4.5

     negative rho (up, down):  5.255E-02 4.940E-02

     total cpu time spent up to now is     7686.3 secs

     total energy              =   -2278.17179050 Ry
     estimated scf accuracy    <          5.9E-09 Ry

     total magnetization       =     3.00 Bohr mag/cell
     absolute magnetization    =     3.72 Bohr mag/cell

     iteration #263     ecut=    58.80 Ry     beta= 0.30
     Davidson diagonalization with overlap
     ethr =  1.82E-12,  avg # of iterations =  4.0

     negative rho (up, down):  5.255E-02 4.940E-02

     total cpu time spent up to now is     7712.1 secs

     total energy              =   -2278.17179050 Ry
     estimated scf accuracy    <          5.8E-09 Ry

     total magnetization       =     3.00 Bohr mag/cell
     absolute magnetization    =     3.72 Bohr mag/cell

     iteration #264     ecut=    58.80 Ry     beta= 0.30
     Davidson diagonalization with overlap
     ethr =  1.80E-12,  avg # of iterations =  2.5

     negative rho (up, down):  5.255E-02 4.940E-02

     total cpu time spent up to now is     7735.7 secs

     total energy              =   -2278.17179050 Ry
     estimated scf accuracy    <          5.8E-09 Ry

     total magnetization       =     3.00 Bohr mag/cell
     absolute magnetization    =     3.72 Bohr mag/cell

     iteration #265     ecut=    58.80 Ry     beta= 0.30
     Davidson diagonalization with overlap
     ethr =  1.79E-12,  avg # of iterations =  4.0

     negative rho (up, down):  5.255E-02 4.940E-02

     total cpu time spent up to now is     7761.6 secs

     total energy              =   -2278.17179049 Ry
     estimated scf accuracy    <          5.8E-09 Ry

     total magnetization       =     3.00 Bohr mag/cell
     absolute magnetization    =     3.72 Bohr mag/cell

     iteration #266     ecut=    58.80 Ry     beta= 0.30
     Davidson diagonalization with overlap
     ethr =  1.79E-12,  avg # of iterations =  4.5

     negative rho (up, down):  5.255E-02 4.940E-02

     total cpu time spent up to now is     7789.8 secs

     total energy              =   -2278.17179050 Ry
     estimated scf accuracy    <          5.7E-09 Ry

     total magnetization       =     3.00 Bohr mag/cell
     absolute magnetization    =     3.72 Bohr mag/cell

     iteration #267     ecut=    58.80 Ry     beta= 0.30
     Davidson diagonalization with overlap
     ethr =  1.78E-12,  avg # of iterations =  2.5

     negative rho (up, down):  5.255E-02 4.940E-02

     total cpu time spent up to now is     7812.9 secs

     total energy              =   -2278.17179050 Ry
     estimated scf accuracy    <          5.7E-09 Ry

     total magnetization       =     3.00 Bohr mag/cell
     absolute magnetization    =     3.72 Bohr mag/cell

     iteration #268     ecut=    58.80 Ry     beta= 0.30
     Davidson diagonalization with overlap
     ethr =  1.78E-12,  avg # of iterations =  1.5

     negative rho (up, down):  5.255E-02 4.940E-02

     total cpu time spent up to now is     7835.3 secs

     total energy              =   -2278.17179050 Ry
     estimated scf accuracy    <          5.7E-09 Ry

     total magnetization       =     3.00 Bohr mag/cell
     absolute magnetization    =     3.72 Bohr mag/cell

     iteration #269     ecut=    58.80 Ry     beta= 0.30
     Davidson diagonalization with overlap
     ethr =  1.77E-12,  avg # of iterations =  2.5

     negative rho (up, down):  5.255E-02 4.940E-02

     total cpu time spent up to now is     7858.5 secs

     total energy              =   -2278.17179050 Ry
     estimated scf accuracy    <          5.8E-09 Ry

     total magnetization       =     3.00 Bohr mag/cell
     absolute magnetization    =     3.72 Bohr mag/cell

     iteration #270     ecut=    58.80 Ry     beta= 0.30
     Davidson diagonalization with overlap
     ethr =  1.77E-12,  avg # of iterations =  2.5

     negative rho (up, down):  5.255E-02 4.940E-02

     total cpu time spent up to now is     7881.6 secs

     total energy              =   -2278.17179050 Ry
     estimated scf accuracy    <          5.8E-09 Ry

     total magnetization       =     3.00 Bohr mag/cell
     absolute magnetization    =     3.72 Bohr mag/cell

     iteration #271     ecut=    58.80 Ry     beta= 0.30
     Davidson diagonalization with overlap
     ethr =  1.77E-12,  avg # of iterations =  4.0

     negative rho (up, down):  5.255E-02 4.940E-02

     total cpu time spent up to now is     7909.3 secs

     total energy              =   -2278.17179049 Ry
     estimated scf accuracy    <          5.6E-09 Ry

     total magnetization       =     3.00 Bohr mag/cell
     absolute magnetization    =     3.72 Bohr mag/cell

     iteration #272     ecut=    58.80 Ry     beta= 0.30
     Davidson diagonalization with overlap
     ethr =  1.73E-12,  avg # of iterations =  4.5

     negative rho (up, down):  5.255E-02 4.940E-02

     total cpu time spent up to now is     7940.1 secs

     total energy              =   -2278.17179049 Ry
     estimated scf accuracy    <          5.5E-09 Ry

     total magnetization       =     3.00 Bohr mag/cell
     absolute magnetization    =     3.72 Bohr mag/cell

     iteration #273     ecut=    58.80 Ry     beta= 0.30
     Davidson diagonalization with overlap
     ethr =  1.71E-12,  avg # of iterations =  4.0

     negative rho (up, down):  5.255E-02 4.940E-02

     total cpu time spent up to now is     7964.5 secs

     total energy              =   -2278.17179050 Ry
     estimated scf accuracy    <          5.6E-09 Ry

     total magnetization       =     3.00 Bohr mag/cell
     absolute magnetization    =     3.72 Bohr mag/cell

     iteration #274     ecut=    58.80 Ry     beta= 0.30
     Davidson diagonalization with overlap
     ethr =  1.71E-12,  avg # of iterations =  4.0

     negative rho (up, down):  5.255E-02 4.940E-02

     total cpu time spent up to now is     7990.0 secs

     total energy              =   -2278.17179048 Ry
     estimated scf accuracy    <          5.5E-09 Ry

     total magnetization       =     3.00 Bohr mag/cell
     absolute magnetization    =     3.72 Bohr mag/cell

     iteration #275     ecut=    58.80 Ry     beta= 0.30
     Davidson diagonalization with overlap
     ethr =  1.70E-12,  avg # of iterations =  4.5

     negative rho (up, down):  5.255E-02 4.940E-02

     total cpu time spent up to now is     8020.7 secs

     total energy              =   -2278.17179049 Ry
     estimated scf accuracy    <          5.5E-09 Ry

     total magnetization       =     3.00 Bohr mag/cell
     absolute magnetization    =     3.72 Bohr mag/cell

     iteration #276     ecut=    58.80 Ry     beta= 0.30
     Davidson diagonalization with overlap
     ethr =  1.70E-12,  avg # of iterations =  4.5

     negative rho (up, down):  5.255E-02 4.940E-02

     total cpu time spent up to now is     8048.4 secs

     total energy              =   -2278.17179050 Ry
     estimated scf accuracy    <          5.5E-09 Ry

     total magnetization       =     3.00 Bohr mag/cell
     absolute magnetization    =     3.72 Bohr mag/cell

     iteration #277     ecut=    58.80 Ry     beta= 0.30
     Davidson diagonalization with overlap
     ethr =  1.69E-12,  avg # of iterations =  4.5

     negative rho (up, down):  5.255E-02 4.940E-02

     total cpu time spent up to now is     8076.3 secs

     total energy              =   -2278.17179051 Ry
     estimated scf accuracy    <          5.3E-09 Ry

     total magnetization       =     3.00 Bohr mag/cell
     absolute magnetization    =     3.72 Bohr mag/cell

     iteration #278     ecut=    58.80 Ry     beta= 0.30
     Davidson diagonalization with overlap
     ethr =  1.64E-12,  avg # of iterations =  4.5

     negative rho (up, down):  5.255E-02 4.940E-02

     total cpu time spent up to now is     8107.0 secs

     total energy              =   -2278.17179051 Ry
     estimated scf accuracy    <          5.0E-09 Ry

     total magnetization       =     3.00 Bohr mag/cell
     absolute magnetization    =     3.72 Bohr mag/cell

     iteration #279     ecut=    58.80 Ry     beta= 0.30
     Davidson diagonalization with overlap
     ethr =  1.54E-12,  avg # of iterations =  4.5

     negative rho (up, down):  5.255E-02 4.940E-02

     total cpu time spent up to now is     8141.5 secs

     total energy              =   -2278.17179047 Ry
     estimated scf accuracy    <          4.5E-09 Ry

     total magnetization       =     3.00 Bohr mag/cell
     absolute magnetization    =     3.72 Bohr mag/cell

     iteration #280     ecut=    58.80 Ry     beta= 0.30
     Davidson diagonalization with overlap
     ethr =  1.40E-12,  avg # of iterations =  5.5

     negative rho (up, down):  5.255E-02 4.940E-02

     total cpu time spent up to now is     8183.4 secs

     total energy              =   -2278.17179057 Ry
     estimated scf accuracy    <          3.5E-09 Ry

     total magnetization       =     3.00 Bohr mag/cell
     absolute magnetization    =     3.72 Bohr mag/cell

     iteration #281     ecut=    58.80 Ry     beta= 0.30
     Davidson diagonalization with overlap
     ethr =  1.09E-12,  avg # of iterations =  5.0

     negative rho (up, down):  5.255E-02 4.940E-02

     total cpu time spent up to now is     8223.2 secs

     total energy              =   -2278.17179063 Ry
     estimated scf accuracy    <          2.8E-09 Ry

     total magnetization       =     3.00 Bohr mag/cell
     absolute magnetization    =     3.72 Bohr mag/cell

     iteration #282     ecut=    58.80 Ry     beta= 0.30
     Davidson diagonalization with overlap
     ethr =  8.76E-13,  avg # of iterations =  4.5

     negative rho (up, down):  5.255E-02 4.940E-02

     total cpu time spent up to now is     8260.3 secs

     total energy              =   -2278.17179061 Ry
     estimated scf accuracy    <          2.4E-09 Ry

     total magnetization       =     3.00 Bohr mag/cell
     absolute magnetization    =     3.72 Bohr mag/cell

     iteration #283     ecut=    58.80 Ry     beta= 0.30
     Davidson diagonalization with overlap
     ethr =  7.47E-13,  avg # of iterations =  5.5

     negative rho (up, down):  5.255E-02 4.940E-02

     total cpu time spent up to now is     8303.4 secs

     total energy              =   -2278.17179067 Ry
     estimated scf accuracy    <          1.6E-09 Ry

     total magnetization       =     3.00 Bohr mag/cell
     absolute magnetization    =     3.72 Bohr mag/cell

     iteration #284     ecut=    58.80 Ry     beta= 0.30
     Davidson diagonalization with overlap
     ethr =  4.90E-13,  avg # of iterations =  5.5

     negative rho (up, down):  5.255E-02 4.940E-02

     total cpu time spent up to now is     8345.9 secs

     total energy              =   -2278.17179067 Ry
     estimated scf accuracy    <          1.2E-09 Ry

     total magnetization       =     3.00 Bohr mag/cell
     absolute magnetization    =     3.72 Bohr mag/cell

     iteration #285     ecut=    58.80 Ry     beta= 0.30
     Davidson diagonalization with overlap
     ethr =  3.63E-13,  avg # of iterations =  5.5

     negative rho (up, down):  5.255E-02 4.940E-02

     Magnetic moment per site  (integrated on atomic sphere of radius R)
     atom   1 (R=0.023)  charge= 12.5220  magn=  0.8694
     atom   2 (R=0.023)  charge= 12.5202  magn=  0.8843
     atom   3 (R=0.023)  charge= 12.5195  magn=  0.9088
     atom   4 (R=0.012)  charge=  1.8967  magn=  0.0163
     atom   5 (R=0.012)  charge=  1.9220  magn= -0.0030
     atom   6 (R=0.012)  charge=  0.3963  magn= -0.0000
     atom   7 (R=0.012)  charge=  0.3921  magn=  0.0005
     atom   8 (R=0.012)  charge=  1.9267  magn= -0.0027
     atom   9 (R=0.012)  charge=  0.3967  magn=  0.0001
     atom  10 (R=0.012)  charge=  0.3949  magn=  0.0004
     atom  11 (R=0.012)  charge=  1.9284  magn= -0.0048
     atom  12 (R=0.012)  charge=  0.3980  magn=  0.0002
     atom  13 (R=0.012)  charge=  0.3938  magn=  0.0002
     atom  14 (R=0.012)  charge=  1.9172  magn= -0.0051
     atom  15 (R=0.012)  charge=  1.9200  magn= -0.0042
     atom  16 (R=0.012)  charge=  1.9106  magn= -0.0057
     atom  17 (R=0.012)  charge=  1.9168  magn= -0.0058
     atom  18 (R=0.012)  charge=  1.9218  magn= -0.0052
     atom  19 (R=0.012)  charge=  1.9240  magn= -0.0068
     atom  20 (R=0.012)  charge=  1.9125  magn= -0.0049
     atom  21 (R=0.012)  charge=  1.9132  magn= -0.0088
     atom  22 (R=0.012)  charge=  1.9210  magn= -0.0058
     atom  23 (R=0.012)  charge=  1.9217  magn= -0.0036
     atom  24 (R=0.012)  charge=  1.9123  magn= -0.0066
     atom  25 (R=0.012)  charge=  1.9209  magn= -0.0035
     atom  26 (R=0.014)  charge=  0.8395  magn=  0.0002
     atom  27 (R=0.014)  charge=  0.8319  magn= -0.0013
     atom  28 (R=0.014)  charge=  0.8512  magn= -0.0000
     atom  29 (R=0.012)  charge=  0.3897  magn=  0.0000
     atom  30 (R=0.012)  charge=  0.3882  magn= -0.0000
     atom  31 (R=0.012)  charge=  0.3861  magn= -0.0001
     atom  32 (R=0.014)  charge=  0.8523  magn= -0.0001
     atom  33 (R=0.012)  charge=  0.3867  magn= -0.0000
     atom  34 (R=0.012)  charge=  0.3870  magn= -0.0001
     atom  35 (R=0.012)  charge=  0.3865  magn= -0.0000
     atom  36 (R=0.014)  charge=  0.8527  magn= -0.0000
     atom  37 (R=0.012)  charge=  0.3887  magn= -0.0000
     atom  38 (R=0.012)  charge=  0.3883  magn=  0.0000
     atom  39 (R=0.012)  charge=  0.3866  magn= -0.0001
     atom  40 (R=0.014)  charge=  0.8411  magn=  0.0004
     atom  41 (R=0.014)  charge=  0.8319  magn= -0.0015
     atom  42 (R=0.014)  charge=  0.8529  magn= -0.0001
     atom  43 (R=0.012)  charge=  0.3877  magn= -0.0000
     atom  44 (R=0.012)  charge=  0.3859  magn= -0.0000
     atom  45 (R=0.012)  charge=  0.3873  magn= -0.0002
     atom  46 (R=0.014)  charge=  0.8552  magn= -0.0001
     atom  47 (R=0.012)  charge=  0.3866  magn= -0.0000
     atom  48 (R=0.012)  charge=  0.3868  magn= -0.0001
     atom  49 (R=0.012)  charge=  0.3893  magn=  0.0000
     atom  50 (R=0.014)  charge=  0.8551  magn= -0.0000
     atom  51 (R=0.012)  charge=  0.3875  magn= -0.0000
     atom  52 (R=0.012)  charge=  0.3890  magn=  0.0000
     atom  53 (R=0.012)  charge=  0.3882  magn= -0.0001
     atom  54 (R=0.014)  charge=  0.8396  magn=  0.0016
     atom  55 (R=0.014)  charge=  0.8310  magn= -0.0014
     atom  56 (R=0.014)  charge=  0.8536  magn= -0.0001
     atom  57 (R=0.012)  charge=  0.3879  magn= -0.0001
     atom  58 (R=0.012)  charge=  0.3890  magn=  0.0000
     atom  59 (R=0.012)  charge=  0.3873  magn=  0.0000
     atom  60 (R=0.014)  charge=  0.8536  magn=  0.0000
     atom  61 (R=0.012)  charge=  0.3863  magn= -0.0001
     atom  62 (R=0.012)  charge=  0.3877  magn= -0.0000
     atom  63 (R=0.012)  charge=  0.3862  magn= -0.0000
     atom  64 (R=0.014)  charge=  0.8537  magn=  0.0000
     atom  65 (R=0.012)  charge=  0.3859  magn= -0.0001
     atom  66 (R=0.012)  charge=  0.3879  magn= -0.0000
     atom  67 (R=0.012)  charge=  0.3883  magn=  0.0000
     atom  68 (R=0.014)  charge=  0.8414  magn=  0.0016
     atom  69 (R=0.014)  charge=  0.8309  magn= -0.0016
     atom  70 (R=0.014)  charge=  0.8531  magn= -0.0000
     atom  71 (R=0.012)  charge=  0.3840  magn= -0.0002
     atom  72 (R=0.012)  charge=  0.3871  magn= -0.0000
     atom  73 (R=0.012)  charge=  0.3861  magn= -0.0000
     atom  74 (R=0.014)  charge=  0.8544  magn= -0.0001
     atom  75 (R=0.012)  charge=  0.3862  magn= -0.0001
     atom  76 (R=0.012)  charge=  0.3889  magn=  0.0000
     atom  77 (R=0.012)  charge=  0.3889  magn= -0.0000
     atom  78 (R=0.014)  charge=  0.8566  magn= -0.0001
     atom  79 (R=0.012)  charge=  0.3870  magn= -0.0001
     atom  80 (R=0.012)  charge=  0.3879  magn= -0.0000
     atom  81 (R=0.012)  charge=  0.3877  magn=  0.0000
     atom  82 (R=0.014)  charge=  0.8410  magn= -0.0000
     atom  83 (R=0.014)  charge=  0.8331  magn= -0.0012
     atom  84 (R=0.014)  charge=  0.8552  magn= -0.0000
     atom  85 (R=0.012)  charge=  0.3874  magn= -0.0000
     atom  86 (R=0.012)  charge=  0.3859  magn= -0.0000
     atom  87 (R=0.012)  charge=  0.3879  magn=  0.0000
     atom  88 (R=0.014)  charge=  0.8547  magn=  0.0000
     atom  89 (R=0.012)  charge=  0.3866  magn= -0.0000
     atom  90 (R=0.012)  charge=  0.3897  magn=  0.0000
     atom  91 (R=0.012)  charge=  0.3862  magn= -0.0001
     atom  92 (R=0.014)  charge=  0.8550  magn= -0.0001
     atom  93 (R=0.012)  charge=  0.3877  magn= -0.0001
     atom  94 (R=0.012)  charge=  0.3878  magn=  0.0000
     atom  95 (R=0.012)  charge=  0.3870  magn=  0.0000
     atom  96 (R=0.014)  charge=  0.8406  magn=  0.0006
     atom  97 (R=0.014)  charge=  0.8327  magn= -0.0016
     atom  98 (R=0.014)  charge=  0.8541  magn= -0.0000
     atom  99 (R=0.012)  charge=  0.3851  magn= -0.0001
     atom 100 (R=0.012)  charge=  0.3873  magn= -0.0000
     atom 101 (R=0.012)  charge=  0.3888  magn=  0.0000
     atom 102 (R=0.014)  charge=  0.8544  magn=  0.0001
     atom 103 (R=0.012)  charge=  0.3843  magn=  0.0000
     atom 104 (R=0.012)  charge=  0.3891  magn=  0.0000
     atom 105 (R=0.012)  charge=  0.3861  magn= -0.0000
     atom 106 (R=0.014)  charge=  0.8542  magn= -0.0001
     atom 107 (R=0.012)  charge=  0.3880  magn= -0.0001
     atom 108 (R=0.012)  charge=  0.3867  magn=  0.0000
     atom 109 (R=0.012)  charge=  0.3885  magn=  0.0000

     total cpu time spent up to now is     8389.6 secs

     End of self-consistent calculation

     =================== HUBBARD OCCUPATIONS ===================
     ------------------------ ATOM    1 ------------------------
     Tr[ns(  1)] (up, down, total) =   3.64911  2.66042  6.30953
     Atomic magnetic moment for atom   1 =   0.98870
     SPIN  1
     eigenvalues:
       0.343  0.378  0.969  0.976  0.984
     eigenvectors (columns):
      -0.413  0.019  0.745 -0.495 -0.171
       0.157  0.608 -0.269 -0.637  0.357
       0.798 -0.297  0.434 -0.117  0.271
       0.389  0.140 -0.128 -0.208 -0.877
       0.130  0.723  0.410  0.541 -0.015
     occupation matrix ns (before diag.):
       0.864  0.035  0.209  0.102  0.024
       0.035  0.740  0.030 -0.092 -0.275
       0.209  0.030  0.519 -0.173  0.061
       0.102 -0.092 -0.173  0.874 -0.092
       0.024 -0.275  0.061 -0.092  0.651
     SPIN  2
     eigenvalues:
       0.123  0.281  0.315  0.969  0.972
     eigenvectors (columns):
      -0.182  0.469  0.098  0.857 -0.054
       0.343 -0.101  0.732  0.008 -0.581
       0.269 -0.779 -0.244  0.511 -0.007
      -0.881 -0.370  0.176 -0.020 -0.234
      -0.020 -0.161  0.604  0.064  0.778
     occupation matrix ns (before diag.):
       0.784  0.039  0.308 -0.028  0.010
       0.039  0.513 -0.015  0.146 -0.296
       0.308 -0.015  0.451  0.030  0.015
      -0.028  0.146  0.030  0.198 -0.126
       0.010 -0.296  0.015 -0.126  0.714
     ------------------------ ATOM    2 ------------------------
     Tr[ns(  2)] (up, down, total) =   3.65571  2.65009  6.30579
     Atomic magnetic moment for atom   2 =   1.00562
     SPIN  1
     eigenvalues:
       0.348  0.378  0.969  0.977  0.984
     eigenvectors (columns):
      -0.012 -0.958 -0.030 -0.022 -0.285
      -0.084 -0.162 -0.743 -0.114  0.634
       0.111 -0.232  0.653 -0.061  0.710
       0.990  0.001 -0.137  0.001 -0.029
      -0.004 -0.054 -0.046  0.991  0.110
     occupation matrix ns (before diag.):
       0.428 -0.095 -0.133  0.008 -0.031
      -0.095  0.955 -0.010  0.051 -0.005
      -0.133 -0.010  0.937 -0.069 -0.006
       0.008  0.051 -0.069  0.361  0.003
      -0.031 -0.005 -0.006  0.003  0.975
     SPIN  2
     eigenvalues:
       0.115  0.284  0.310  0.969  0.972
     eigenvectors (columns):
      -0.281  0.042 -0.928 -0.024 -0.240
       0.696  0.056 -0.182 -0.691 -0.032
       0.657 -0.069 -0.228  0.715  0.030
      -0.021 -0.994 -0.043 -0.092  0.025
      -0.066  0.041 -0.228 -0.049  0.969
     occupation matrix ns (before diag.):
       0.333  0.054  0.020 -0.003 -0.157
       0.054  0.531 -0.415  0.046  0.010
       0.020 -0.415  0.563 -0.042  0.005
      -0.003  0.046 -0.042  0.290  0.020
      -0.157  0.010  0.005  0.020  0.933
     ------------------------ ATOM    3 ------------------------
     Tr[ns(  3)] (up, down, total) =   3.66562  2.61170  6.27731
     Atomic magnetic moment for atom   3 =   1.05392
     SPIN  1
     eigenvalues:
       0.358  0.374  0.971  0.980  0.984
     eigenvectors (columns):
       0.100  0.092  0.569 -0.807 -0.081
      -0.529 -0.618  0.498  0.192  0.231
       0.549 -0.629 -0.288 -0.247  0.399
      -0.216  0.430 -0.059 -0.106  0.868
       0.602  0.170  0.585  0.490  0.165
     occupation matrix ns (before diag.):
       0.965  0.065  0.002 -0.010 -0.050
       0.065  0.572 -0.054  0.091  0.259
       0.002 -0.054  0.552  0.239 -0.139
      -0.010  0.091  0.239  0.842  0.037
      -0.050  0.259 -0.139  0.037  0.734
     SPIN  2
     eigenvalues:
       0.079  0.285  0.302  0.971  0.975
     eigenvectors (columns):
      -0.904 -0.103 -0.147 -0.253  0.294
      -0.066 -0.112  0.758 -0.545 -0.333
      -0.232 -0.636 -0.061  0.435 -0.591
      -0.273  0.722 -0.148  0.054 -0.615
       0.224 -0.225 -0.614 -0.668 -0.274
     occupation matrix ns (before diag.):
       0.221  0.013 -0.239 -0.185  0.104
       0.013  0.574 -0.031  0.115  0.308
      -0.239 -0.031  0.645  0.254 -0.076
      -0.185  0.115  0.254  0.533  0.106
       0.104  0.308 -0.076  0.106  0.639

     Number of occupied Hubbard levels =   18.8926

 ------ SPIN UP ------------


          k = 0.0000 0.0000 0.0000 (****** PWs)   bands (ev):

   -94.0384 -93.9626 -93.9214 -60.5925 -60.5150 -60.3969 -60.2535 -60.1959
   -60.1211 -59.4115 -59.3929 -59.3164 -28.8530 -28.7454 -28.6744 -28.5244
   -28.4452 -28.4153 -27.9449 -27.9275 -27.8647 -26.4709 -26.4008 -26.3082
   -26.2035 -26.1410 -26.0677 -24.3775 -21.5475 -21.5329 -21.5027 -21.2547
   -21.2387 -21.1617 -18.0679 -18.0549 -18.0428 -17.9843 -17.9772 -17.9426
   -17.7845 -17.7610 -17.6857 -17.6579 -17.6287 -17.5508 -16.8863 -16.7185
   -16.6524 -16.4676 -16.3855 -16.3316 -15.8269 -15.7943 -15.7545 -14.5914
   -14.5839 -14.5721 -14.2997 -14.1457 -14.1056 -13.8667 -13.7861 -13.7180
   -13.7010 -13.6538 -13.3431 -13.2163 -13.1079 -13.1041 -13.0909 -12.9134
   -12.8190 -12.7707 -12.7255 -12.6829 -12.5891 -12.4871 -12.4180 -12.2427
   -12.2227 -12.1329 -11.7747 -11.7608 -11.7110 -11.6836 -11.6085 -11.5611
   -11.5389 -11.4926 -11.4395 -11.4209 -11.3700 -11.3342 -11.1990 -11.1229
   -11.0337 -10.9099 -10.9048 -10.7359 -10.6286 -10.5935 -10.4803 -10.4352
   -10.3658 -10.3537 -10.3380 -10.2988 -10.2310 -10.1765 -10.1413 -10.1269
   -10.1055 -10.0836 -10.0507 -10.0347  -9.9391  -9.8839  -9.8769  -9.8637
    -9.8448  -9.8266  -9.8133  -9.6676  -9.5401  -9.4943  -9.4343  -9.4034
    -9.2676  -9.1972  -9.1706  -9.1398  -9.1192  -9.1059  -9.0898  -8.9842
    -8.9055  -8.9010  -8.8639  -8.8295  -8.8016  -8.7614  -8.7500  -8.7332
    -8.6946  -8.6880  -8.6514  -8.5962  -8.5119  -8.4823  -8.4394  -8.3422
    -8.2422  -8.2134  -8.0474  -7.9577  -7.8731  -7.8544  -7.7663  -7.6110
    -7.5689  -7.4378  -6.7844

 ------ SPIN DOWN ----------


          k = 0.0000 0.0000 0.0000 (****** PWs)   bands (ev):

   -92.8142 -92.7730 -92.7526 -59.1272 -58.9746 -58.9690 -58.9481 -58.9073
   -58.8971 -58.6842 -58.6387 -58.5791 -28.8630 -28.7557 -28.6855 -28.5341
   -28.4577 -28.4278 -27.9508 -27.9340 -27.8777 -26.4857 -26.4137 -26.3219
   -26.2174 -26.1571 -26.0848 -24.2941 -21.5517 -21.5369 -21.5068 -21.2598
   -21.2436 -21.1670 -18.0680 -18.0551 -18.0434 -17.9850 -17.9780 -17.9431
   -17.7848 -17.7617 -17.6864 -17.6587 -17.6296 -17.5518 -16.8796 -16.7165
   -16.6542 -16.4670 -16.3817 -16.3266 -15.8174 -15.7698 -15.7445 -14.5719
   -14.5689 -14.5441 -14.1974 -14.1042 -14.0346 -13.8161 -13.7408 -13.6368
   -13.6308 -13.5702 -13.3236 -13.1643 -13.1042 -13.0937 -13.0150 -12.8524
   -12.8017 -12.7280 -12.7193 -12.6606 -12.5072 -12.4231 -12.3364 -12.2133
   -12.2025 -12.1036 -11.7561 -11.7365 -11.6787 -11.6201 -11.5203 -11.4899
   -11.4643 -11.4552 -11.4131 -11.3979 -11.3221 -11.2573 -11.1474 -11.0857
   -10.8683 -10.6872 -10.6248 -10.5360 -10.4825 -10.4425 -10.4085 -10.3595
   -10.3320 -10.3124 -10.2776 -10.2693 -10.1393 -10.1153 -10.0897 -10.0574
   -10.0212  -9.9995  -9.9799  -9.8865  -9.8638  -9.8474  -9.8296  -9.8128
    -9.8092  -9.6996  -9.5396  -9.4941  -9.4337  -9.3670  -9.2018  -9.1678
    -9.1517  -9.1167  -9.1066  -9.0940  -8.9543  -8.8814  -8.8728  -8.8494
    -8.8327  -8.7782  -8.7381  -8.7367  -8.7062  -8.6894  -8.6544  -8.6256
    -8.6018  -8.5336  -8.5070  -8.3974  -8.2451  -8.1855  -8.1501  -8.0713
    -8.0345  -7.8420  -7.7163  -7.5417  -7.4422  -7.2823  -7.0216  -6.8734
    -4.3002  -4.1262  -3.7857

     highest occupied, lowest unoccupied level (ev):    -6.7844   -4.3002

!    total energy              =   -2278.17179072 Ry
     total all-electron energy =     -2278.171791 Ry
     estimated scf accuracy    <          8.4E-10 Ry

     The total energy is the sum of the following terms:
     one-electron contribution =  -17095.02434988 Ry
     hartree contribution      =    8507.65551973 Ry
     xc contribution           =    -361.09099189 Ry
     ewald contribution        =    7219.31701679 Ry
     Hubbard energy            =       0.48338567 Ry
     one-center paw contrib.   =    -549.51237115 Ry

     total magnetization       =     3.00 Bohr mag/cell
     absolute magnetization    =     3.72 Bohr mag/cell

     convergence has been achieved in 285 iterations

     negative rho (up, down):  5.255E-02 4.940E-02

     Forces acting on atoms (cartesian axes, Ry/au):

     atom    1 type  1   force =    -0.00429312    0.00491306   -0.00460039
     atom    2 type  1   force =     0.00662529   -0.00470664    0.00526452
     atom    3 type  1   force =    -0.01045642    0.01013376    0.00130370
     atom    4 type  2   force =     0.01991229   -0.00737367   -0.00631904
     atom    5 type  2   force =    -0.01382971   -0.01531637    0.00388656
     atom    6 type  3   force =     0.01530744   -0.00573079   -0.01082253
     atom    7 type  3   force =     0.00759729    0.01097689    0.01470095
     atom    8 type  2   force =    -0.01679147   -0.01147960   -0.00716530
     atom    9 type  3   force =     0.01840523   -0.00561716   -0.00542522
     atom   10 type  3   force =     0.00015179    0.01981932   -0.00246159
     atom   11 type  2   force =    -0.02501718   -0.01128176   -0.00710759
     atom   12 type  3   force =     0.00362283    0.00107095    0.01888499
     atom   13 type  3   force =     0.00301314    0.01873309   -0.00431861
     atom   14 type  2   force =     0.01154720   -0.00478052    0.02357837
     atom   15 type  2   force =    -0.00620677    0.00500511   -0.02590145
     atom   16 type  2   force =     0.01531290   -0.01440953    0.01867860
     atom   17 type  2   force =    -0.01665637    0.00781722   -0.02551942
     atom   18 type  2   force =     0.01440270    0.00030570   -0.01917941
     atom   19 type  2   force =    -0.01792947    0.00347094    0.02563683
     atom   20 type  2   force =     0.00536423    0.00197240   -0.02746893
     atom   21 type  2   force =    -0.02523581    0.00036429    0.03113894
     atom   22 type  2   force =    -0.01112483    0.02580831   -0.00479087
     atom   23 type  2   force =     0.01406403   -0.02050756    0.00704000
     atom   24 type  2   force =    -0.02332656    0.02213501    0.01185120
     atom   25 type  2   force =     0.01418006   -0.02753321   -0.00646547
     atom   26 type  4   force =     0.01620804    0.00309512   -0.00287002
     atom   27 type  4   force =     0.00324998    0.00098615    0.00006887
     atom   28 type  4   force =    -0.00043314   -0.00153531   -0.00093389
     atom   29 type  3   force =    -0.00453699    0.00324622   -0.00592771
     atom   30 type  3   force =    -0.00008341   -0.00765200   -0.00159336
     atom   31 type  3   force =     0.00751251    0.00230818   -0.00208977
     atom   32 type  4   force =     0.00111938    0.00092506    0.00091565
     atom   33 type  3   force =    -0.00458115    0.00410157   -0.00489229
     atom   34 type  3   force =     0.00731655    0.00343360   -0.00170133
     atom   35 type  3   force =    -0.00192936    0.00258063    0.00701943
     atom   36 type  4   force =     0.00158244   -0.00150614    0.00053774
     atom   37 type  3   force =     0.00040729   -0.00791761   -0.00011919
     atom   38 type  3   force =    -0.00096838    0.00194115    0.00766280
     atom   39 type  3   force =     0.00755669    0.00243106   -0.00139186
     atom   40 type  4   force =     0.00400063   -0.01262263   -0.00516508
     atom   41 type  4   force =    -0.00074258   -0.00113375   -0.00071887
     atom   42 type  4   force =    -0.00053122   -0.00161723   -0.00018633
     atom   43 type  3   force =    -0.00618712    0.00404550   -0.00276329
     atom   44 type  3   force =    -0.00125947   -0.00103222    0.00766366
     atom   45 type  3   force =    -0.00098200   -0.00737555   -0.00313909
     atom   46 type  4   force =     0.00179983   -0.00053826    0.00065535
     atom   47 type  3   force =     0.00725681    0.00284747   -0.00133187
     atom   48 type  3   force =    -0.00021171   -0.00731300   -0.00335810
     atom   49 type  3   force =    -0.00015133   -0.00159864    0.00775845
     atom   50 type  4   force =    -0.00070049   -0.00073046   -0.00181817
     atom   51 type  3   force =     0.00679478    0.00319361   -0.00247042
     atom   52 type  3   force =    -0.00577229    0.00428492   -0.00361194
     atom   53 type  3   force =    -0.00052011   -0.00703428   -0.00372330
     atom   54 type  4   force =     0.00832270    0.01755780   -0.00926247
     atom   55 type  4   force =    -0.00012849    0.00257036   -0.00055986
     atom   56 type  4   force =    -0.00106191    0.00105902   -0.00072427
     atom   57 type  3   force =     0.00055607    0.00789783   -0.00172579
     atom   58 type  3   force =    -0.00364897   -0.00292092   -0.00633320
     atom   59 type  3   force =     0.00745130   -0.00237200   -0.00088338
     atom   60 type  4   force =    -0.00052128    0.00122178   -0.00049012
     atom   61 type  3   force =    -0.00003016    0.00794974   -0.00163069
     atom   62 type  3   force =    -0.00414693   -0.00065408    0.00670331
     atom   63 type  3   force =    -0.00477515   -0.00276041   -0.00546601
     atom   64 type  4   force =     0.00066023    0.00040756    0.00098866
     atom   65 type  3   force =     0.00048495    0.00804776   -0.00090693
     atom   66 type  3   force =     0.00717978   -0.00260037    0.00047140
     atom   67 type  3   force =    -0.00313211   -0.00052549    0.00736365
     atom   68 type  4   force =    -0.01017317   -0.00341431   -0.01043362
     atom   69 type  4   force =    -0.00343099   -0.00131574    0.00017142
     atom   70 type  4   force =     0.00010488   -0.00268099   -0.00020252
     atom   71 type  3   force =    -0.00677524   -0.00249265   -0.00381010
     atom   72 type  3   force =     0.00116161   -0.00462914    0.00582721
     atom   73 type  3   force =     0.00531230   -0.00191517   -0.00508045
     atom   74 type  4   force =    -0.00102063    0.00064105   -0.00076146
     atom   75 type  3   force =    -0.00686996   -0.00174302   -0.00387151
     atom   76 type  3   force =     0.00553439   -0.00067887   -0.00551600
     atom   77 type  3   force =    -0.00065780    0.00777989    0.00112758
     atom   78 type  4   force =    -0.00163167   -0.00032823    0.00091934
     atom   79 type  3   force =    -0.00700768   -0.00190432   -0.00335780
     atom   80 type  3   force =    -0.00107111    0.00749417    0.00248013
     atom   81 type  3   force =    -0.00011100   -0.00420593    0.00662004
     atom   82 type  4   force =     0.01335642    0.00791885    0.01105180
     atom   83 type  4   force =     0.00048602    0.00015196    0.00282137
     atom   84 type  4   force =     0.00072821    0.00190675   -0.00099466
     atom   85 type  3   force =     0.00542816   -0.00083399   -0.00553052
     atom   86 type  3   force =     0.00341654    0.00427827    0.00587537
     atom   87 type  3   force =    -0.00540746    0.00507754   -0.00327467
     atom   88 type  4   force =    -0.00035754   -0.00061792    0.00196302
     atom   89 type  3   force =    -0.00331842   -0.00653999    0.00262426
     atom   90 type  3   force =    -0.00605253    0.00491480   -0.00199080
     atom   91 type  3   force =     0.00285615    0.00361797    0.00664098
     atom   92 type  4   force =     0.00067414   -0.00125774    0.00032002
     atom   93 type  3   force =     0.00343077    0.00378340    0.00622341
     atom   94 type  3   force =     0.00619316   -0.00129090   -0.00481773
     atom   95 type  3   force =    -0.00211389   -0.00703749    0.00269661
     atom   96 type  4   force =    -0.00233138   -0.01445669    0.01011970
     atom   97 type  4   force =    -0.00130612   -0.00233421    0.00040218
     atom   98 type  4   force =    -0.00251734    0.00015741   -0.00088800
     atom   99 type  3   force =    -0.00507902   -0.00469335    0.00403036
     atom  100 type  3   force =    -0.00093783   -0.00200879   -0.00743337
     atom  101 type  3   force =    -0.00363770    0.00698094    0.00053664
     atom  102 type  4   force =    -0.00065792    0.00001286    0.00198271
     atom  103 type  3   force =    -0.00463668   -0.00455966    0.00460429
     atom  104 type  3   force =    -0.00280564    0.00750740    0.00172002
     atom  105 type  3   force =     0.00723413   -0.00032330    0.00282728
     atom  106 type  4   force =     0.00042758   -0.00027951    0.00062515
     atom  107 type  3   force =    -0.00456253   -0.00488615    0.00412857
     atom  108 type  3   force =     0.00725907   -0.00141341    0.00261020
     atom  109 type  3   force =    -0.00019523   -0.00286274   -0.00742562

     Total force =     0.145303     Total SCF correction =     0.000015


     Computing stress (Cartesian axis) and pressure


     negative rho (up, down):  5.255E-02 4.940E-02
          total   stress  (Ry/bohr**3)                   (kbar)     P=        0.95
   0.00000652  -0.00000064  -0.00000036            0.96       -0.09       -0.05
  -0.00000064   0.00000630   0.00000001           -0.09        0.93        0.00
  -0.00000036   0.00000001   0.00000665           -0.05        0.00        0.98


     Writing all to output data dir ./out/Fe3_O_piv_6_H2O_3_LowSpin.save/ :
     XML data file, charge density, pseudopotentials, collected wavefunctions

     init_run     :     81.38s CPU     83.78s WALL (       1 calls)
     electrons    :   8157.71s CPU   8294.80s WALL (       1 calls)
     forces       :    989.63s CPU    990.40s WALL (       1 calls)
     stress       :   2151.01s CPU   2152.42s WALL (       1 calls)

     Called by init_run:
     wfcinit      :     66.31s CPU     66.90s WALL (       1 calls)
     potinit      :      0.90s CPU      1.05s WALL (       1 calls)
     hinit0       :      4.85s CPU      6.35s WALL (       1 calls)

     Called by electrons:
     c_bands      :   6287.29s CPU   6340.64s WALL (     285 calls)
     sum_band     :   1295.06s CPU   1354.00s WALL (     285 calls)
     v_of_rho     :    133.99s CPU    134.33s WALL (     286 calls)
     newd         :    265.00s CPU    288.57s WALL (     286 calls)
     PAW_pot      :    116.49s CPU    116.51s WALL (     286 calls)
     mix_rho      :     54.24s CPU     54.27s WALL (     285 calls)

     Called by c_bands:
     init_us_2    :    147.84s CPU    147.94s WALL (    1152 calls)
     cegterg      :   6128.16s CPU   6180.71s WALL (     570 calls)

     Called by *egterg:
     cdiaghg      :    429.20s CPU    431.15s WALL (    2807 calls)
     h_psi        :   3977.02s CPU   3996.46s WALL (    2809 calls)
     s_psi        :    658.95s CPU    659.31s WALL (    2819 calls)
     g_psi        :     11.33s CPU     11.36s WALL (    2237 calls)

     Called by h_psi:
     h_psi:calbec :    678.73s CPU    678.83s WALL (    2809 calls)
     vloc_psi     :   2519.88s CPU   2523.73s WALL (    2809 calls)
     add_vuspsi   :    645.00s CPU    645.08s WALL (    2809 calls)
     vhpsi        :    117.42s CPU    117.48s WALL (    2809 calls)

     General routines
     calbec       :   1511.69s CPU   1512.15s WALL (   27728 calls)
     fft          :     80.62s CPU     82.46s WALL (    6048 calls)
     ffts         :      6.39s CPU      6.40s WALL (     570 calls)
     fftw         :   2727.14s CPU   2731.11s WALL (  577556 calls)

     Parallel routines

     Hubbard U routines
     new_ns       :     20.62s CPU     20.63s WALL (     285 calls)
     vhpsi        :    117.42s CPU    117.48s WALL (    2809 calls)
     force_hub    :    980.09s CPU    980.49s WALL (       1 calls)
                                        0.00s GPU  (       1 calls)
     stres_hub    :   2033.11s CPU   2033.89s WALL (       1 calls)
                                        0.00s GPU  (       1 calls)

     PWSCF        :      3h 9m CPU      3h12m WALL


   This run was terminated on:  11:56:32  12Mar2026            

=------------------------------------------------------------------------------=
   JOB DONE.
=------------------------------------------------------------------------------=
