!------------------------------------------------------------------------------!
!--------------------------------- INPUT FILE ---------------------------------!
!------------------------------------------------------------------------------!


&CONTROL
  calculation = 'scf'
  prefix = 'Fe_EtOH_3_HighSpin'
  restart_mode     = 'from_scratch'
  tstress          = .true.
  tprnfor          = .true.
  outdir = './out'
  pseudo_dir = '/work/e89/e89/phsmea/CASTEP_TO_QS_ARCHER/'
/

&SYSTEM
 ibrav = 0
 nat = 28
 nspin = 2
 ntyp = 4
 ecutwfc = 58.80
 starting_magnetization(1) = 5.0  ! Spin polarization
 tot_magnetization = 5.0
 tot_charge = 3
/

&ELECTRONS
diago_david_ndim = 8
electron_maxstep = 1000
conv_thr = 1.0d-6
mixing_beta = 0.3
/

CELL_PARAMETERS angstrom
     27.84119898       0.00000000       0.00000000
      0.00000000      27.95738238       0.00000000
      0.00000000       0.00000000      26.56600724

ATOMIC_SPECIES
Fe 55.845  Fe.GGA-PBE-paw.UPF
O  16.00   O.GGA-PBE-paw.UPF
H  1.008   H.GGA-PBE-paw.UPF
C  12.011  C.GGA-PBE-paw.UPF

ATOMIC_POSITIONS angstrom
   Fe    13.173884    13.742508    12.629390
    O    12.487003    15.216457    11.715548
    O    12.021656    12.839535    13.778607
    O    14.949022    13.183696    12.458749
    H    11.521437    15.321142    11.607960
    C    16.135330    13.476680    11.401376
    H    11.206058    13.268654    14.103332
    C    13.110809    16.518993    10.952886
    H    15.349026    12.583928    13.117868
    C    11.991986    11.347914    14.495494
    H    13.410098    16.082048    10.000000
    H    13.954743    16.765435    11.596047
    C    12.052321    17.546968    10.871336
    H    11.199259    17.243452    10.257925
    H    12.520884    18.387317    10.331716
    H    11.741978    17.934890    11.842705
    H    12.512008    10.747941    13.750035
    C    10.582872    10.986856    14.735810
    H    12.589881    11.545131    15.385609
    H    10.000000    10.844665    13.824942
    H    10.077705    11.640593    15.452048
    H    10.640920    10.000000    15.229360
    H    16.598939    14.363538    11.835302
    H    15.578109    13.695123    10.491179
    C    17.003990    12.279982    11.334889
    H    17.512942    12.062730    12.278314
    H    17.801382    12.548706    10.622897
    H    16.503286    11.398566    10.932556

K_POINTS automatic
1 1 1 0 0 0  ! Gamma point only

HUBBARD ortho-atomic
U Fe-3d 4.0

!------------------------------------------------------------------------------!
!-------------------------------- END OF INPUT --------------------------------!
!------------------------------------------------------------------------------!
