
     Program PWSCF v.7.3 starts on 11Mar2026 at  6:45:52 

     This program is part of the open-source Quantum ESPRESSO suite
     for quantum simulation of materials; please cite
         "P. Giannozzi et al., J. Phys.:Condens. Matter 21 395502 (2009);
         "P. Giannozzi et al., J. Phys.:Condens. Matter 29 465901 (2017);
         "P. Giannozzi et al., J. Chem. Phys. 152 154105 (2020);
          URL http://www.quantum-espresso.org", 
     in publications or presentations arising from this work. More details at
     http://www.quantum-espresso.org/quote

     Parallel version (MPI), running on    24 processors

     MPI processes distributed on     1 nodes
     95915 MiB available memory on the printing compute node when the environment starts

     Reading input from Fe_EtOH_3_LowSpin.in

     Current dimensions of program PWSCF are:
     Max number of different atomic species (ntypx) = 10
     Max number of k-points (npk) =  40000
     Max angular momentum in pseudopotentials (lmaxx) =  4
read_pp_mesh; mismatch in mesh size, discarding the one in header
read_pp_mesh; mismatch in mesh size, discarding the one in header
read_pp_mesh; mismatch in mesh size, discarding the one in header
read_pp_mesh; mismatch in mesh size, discarding the one in header
     file Fe.GGA-PBE-paw.UPF: wavefunction(s)  4S 3P 0P 3D 0D renormalized
     file O.GGA-PBE-paw.UPF: wavefunction(s)  0S 2P 0P renormalized
     file H.GGA-PBE-paw.UPF: wavefunction(s)  0S 0P renormalized
     file C.GGA-PBE-paw.UPF: wavefunction(s)  0S 0P renormalized
     Message from routine setup:
     the system is metallic, specify occupations

     R & G space division:  proc/nbgrp/npool/nimage =      24
     Subspace diagonalization in iterative solution of the eigenvalue problem:
     a serial algorithm will be used


     Parallelization info
     --------------------
     sticks:   dense  smooth     PW     G-vecs:    dense   smooth      PW
     Min        2167    2167    541               354173   354173   44271
     Max        2168    2168    542               354176   354176   44276
     Sum       52017   52017  12997              8500173  8500173 1062547

     Using Slab Decomposition



     bravais-lattice index     =            0
     lattice parameter (alat)  =      52.6122  a.u.
     unit-cell volume          =  139542.7664 (a.u.)^3
     number of atoms/cell      =           28
     number of atomic types    =            4
     number of electrons       =        73.00 (up:  37.00, down:  36.00)
     number of Kohn-Sham states=           37
     kinetic-energy cutoff     =      58.8000  Ry
     charge density cutoff     =     235.2000  Ry
     scf convergence threshold =      1.0E-06
     mixing beta               =       0.3000
     number of iterations used =            8  plain     mixing
     Exchange-correlation= SLA PW PBX PBC
                           (   1   4   3   4   0   0   0)
     Hubbard projectors: ortho-atomic
     Hubbard parameters of DFT+U (Dudarev formulation) in eV:
     U(Fe-3d) =  4.0000

     Internal variables: lda_plus_u =T, lda_plus_u_kind = 0

     celldm(1)=  52.612241  celldm(2)=   0.000000  celldm(3)=   0.000000
     celldm(4)=   0.000000  celldm(5)=   0.000000  celldm(6)=   0.000000

     crystal axes: (cart. coord. in units of alat)
               a(1) = (   1.000000   0.000000   0.000000 )  
               a(2) = (   0.000000   1.004173   0.000000 )  
               a(3) = (   0.000000   0.000000   0.954198 )  

     reciprocal axes: (cart. coord. in units 2 pi/alat)
               b(1) = (  1.000000  0.000000  0.000000 )  
               b(2) = (  0.000000  0.995844  0.000000 )  
               b(3) = (  0.000000  0.000000  1.048001 )  


     PseudoPot. # 1 for Fe read from file:
     /storage/nanosim/JTH_PBE/Fe.GGA-PBE-paw.UPF
     MD5 check sum: 6f5baa53d711f01c620cb678d0da43bc
     Pseudo is Projector augmented-wave + core cor, Zval = 16.0
     Generated using ATOMPAW code
     Shape of augmentation charge: SINC**2
     Using radial grid of 2342 points,  6 beta functions with: 
                l(1) =   0
                l(2) =   0
                l(3) =   1
                l(4) =   1
                l(5) =   2
                l(6) =   2
     Q(r) pseudized with 0 coefficients 


     PseudoPot. # 2 for O  read from file:
     /storage/nanosim/JTH_PBE/O.GGA-PBE-paw.UPF
     MD5 check sum: 736cbc7a9d52a6679d85906802ae4ba1
     Pseudo is Projector augmented-wave + core cor, Zval =  6.0
     Generated using ATOMPAW code
     Shape of augmentation charge: SINC**2
     Using radial grid of 2342 points,  4 beta functions with: 
                l(1) =   0
                l(2) =   0
                l(3) =   1
                l(4) =   1
     Q(r) pseudized with 0 coefficients 


     PseudoPot. # 3 for H  read from file:
     /storage/nanosim/JTH_PBE/H.GGA-PBE-paw.UPF
     MD5 check sum: 038daa4ccd301a845c8516faee96a7c5
     Pseudo is Projector augmented-wave + core cor, Zval =  1.0
     Generated using ATOMPAW code
     Shape of augmentation charge: SINC**2
     Using radial grid of 2342 points,  3 beta functions with: 
                l(1) =   0
                l(2) =   0
                l(3) =   1
     Q(r) pseudized with 0 coefficients 


     PseudoPot. # 4 for C  read from file:
     /storage/nanosim/JTH_PBE/C.GGA-PBE-paw.UPF
     MD5 check sum: 8a36bdb47dd4552c95d9f9e63f43b56b
     Pseudo is Projector augmented-wave + core cor, Zval =  4.0
     Generated using ATOMPAW code
     Shape of augmentation charge: SINC**2
     Using radial grid of 2342 points,  4 beta functions with: 
                l(1) =   0
                l(2) =   0
                l(3) =   1
                l(4) =   1
     Q(r) pseudized with 0 coefficients 


     atomic species   valence    mass     pseudopotential
     Fe               16.00    55.84500     Fe( 1.00)
     O                 6.00    16.00000     O ( 1.00)
     H                 1.00     1.00800     H ( 1.00)
     C                 4.00    12.01100     C ( 1.00)

     Starting magnetic structure 
     atomic species   magnetization
     Fe              0.062
     O               0.000
     H               0.000
     C               0.000

     No symmetry found



   Cartesian axes

     site n.     atom                  positions (alat units)
         1        Fe     tau(   1) = (   0.4649845   0.4672274   0.4441760  )
         2        O      tau(   2) = (   0.4316083   0.5244949   0.4232776  )
         3        O      tau(   3) = (   0.4405525   0.4429167   0.5054219  )
         4        O      tau(   4) = (   0.5225394   0.4333832   0.4231335  )
         5        H      tau(   5) = (   0.4042988   0.5208803   0.4017049  )
         6        C      tau(   6) = (   0.5740336   0.4383831   0.4357778  )
         7        H      tau(   7) = (   0.4408777   0.4632914   0.5338103  )
         8        C      tau(   8) = (   0.4382919   0.5768049   0.4325576  )
         9        H      tau(   9) = (   0.5201657   0.4119088   0.3956102  )
        10        C      tau(  10) = (   0.4211547   0.3952391   0.5186564  )
        11        H      tau(  11) = (   0.4763899   0.5814380   0.4414837  )
        12        H      tau(  12) = (   0.4176712   0.5840691   0.4658010  )
        13        C      tau(  13) = (   0.4216163   0.6073126   0.3923312  )
        14        H      tau(  14) = (   0.4430221   0.6021793   0.3591799  )
        15        H      tau(  15) = (   0.4257929   0.6449931   0.4028016  )
        16        H      tau(  16) = (   0.3838390   0.6014256   0.3822603  )
        17        H      tau(  17) = (   0.4019068   0.3819513   0.4868433  )
        18        C      tau(  18) = (   0.3916653   0.3959372   0.5629022  )
        19        H      tau(  19) = (   0.4528774   0.3715073   0.5231887  )
        20        H      tau(  20) = (   0.3591799   0.4185607   0.5588997  )
        21        H      tau(  21) = (   0.4104756   0.4095417   0.5950177  )
        22        H      tau(  22) = (   0.3801701   0.3591799   0.5707140  )
        23        H      tau(  23) = (   0.5748614   0.4435683   0.4748648  )
        24        H      tau(  24) = (   0.5863997   0.4724868   0.4194175  )
        25        C      tau(  25) = (   0.6036455   0.3976490   0.4183114  )
        26        H      tau(  26) = (   0.5908603   0.3628975   0.4324457  )
        27        H      tau(  27) = (   0.6408201   0.4041691   0.4294925  )
        28        H      tau(  28) = (   0.6051605   0.3935297   0.3788312  )

     number of k points=     1
                       cart. coord. in units 2pi/alat
        k(    1) = (   0.0000000   0.0000000   0.0000000), wk =   1.0000000

     Dense  grid:  8500173 G-vectors     FFT dimensions: ( 270, 270, 250)

     Estimated max dynamical RAM per process >       1.83 GB

     Estimated total dynamical RAM >      43.99 GB
     Generating pointlists ...
     new r_m :   0.0287 (alat units)  1.5083 (a.u.) for type    1
     new r_m :   0.0144 (alat units)  0.7584 (a.u.) for type    2
     new r_m :   0.0144 (alat units)  0.7584 (a.u.) for type    3
     new r_m :   0.0162 (alat units)  0.8528 (a.u.) for type    4

     Initial potential from superposition of free atoms

     starting charge      75.9988, renormalised to      73.0000

     negative rho (up, down):  2.118E-02 1.927E-02

     STARTING HUBBARD OCCUPATIONS:

     =================== HUBBARD OCCUPATIONS ===================
     ------------------------ ATOM    1 ------------------------
     Tr[ns(  1)] (up, down, total) =   5.00000  2.00000  7.00000
     Atomic magnetic moment for atom   1 =   3.00000
     SPIN  1
     eigenvalues:
       1.000  1.000  1.000  1.000  1.000
     eigenvectors (columns):
       1.000  0.000  0.000  0.000  0.000
       0.000  1.000  0.000  0.000  0.000
       0.000  0.000  1.000  0.000  0.000
       0.000  0.000  0.000  1.000  0.000
       0.000  0.000  0.000  0.000  1.000
     occupation matrix ns (before diag.):
       1.000  0.000  0.000  0.000  0.000
       0.000  1.000  0.000  0.000  0.000
       0.000  0.000  1.000  0.000  0.000
       0.000  0.000  0.000  1.000  0.000
       0.000  0.000  0.000  0.000  1.000
     SPIN  2
     eigenvalues:
       0.400  0.400  0.400  0.400  0.400
     eigenvectors (columns):
       1.000  0.000  0.000  0.000  0.000
       0.000  1.000  0.000  0.000  0.000
       0.000  0.000  1.000  0.000  0.000
       0.000  0.000  0.000  1.000  0.000
       0.000  0.000  0.000  0.000  1.000
     occupation matrix ns (before diag.):
       0.400  0.000  0.000  0.000  0.000
       0.000  0.400  0.000  0.000  0.000
       0.000  0.000  0.400  0.000  0.000
       0.000  0.000  0.000  0.400  0.000
       0.000  0.000  0.000  0.000  0.400

     Number of occupied Hubbard levels =    7.0000

     Atomic wfc used for Hubbard projectors are orthogonalized

     Starting wfcs are  180 randomized atomic wfcs
     Checking if some PAW data can be deallocated... 

     total cpu time spent up to now is       26.8 secs

     Self-consistent Calculation

     iteration #  1     ecut=    58.80 Ry     beta= 0.30
     Davidson diagonalization with overlap
     ethr =  1.00E-02,  avg # of iterations =  2.0

     =================== HUBBARD OCCUPATIONS ===================
     ------------------------ ATOM    1 ------------------------
     Tr[ns(  1)] (up, down, total) =   4.90533  4.87831  9.78364
     Atomic magnetic moment for atom   1 =   0.02702
     SPIN  1
     eigenvalues:
       0.978  0.979  0.982  0.983  0.983
     eigenvectors (columns):
      -0.034  0.797 -0.103  0.466  0.367
      -0.560  0.220  0.542  0.150 -0.568
      -0.523  0.298 -0.398 -0.689  0.070
      -0.000  0.018  0.719 -0.346  0.602
       0.642  0.476  0.143 -0.407 -0.418
     occupation matrix ns (before diag.):
       0.981 -0.001 -0.001  0.000 -0.001
      -0.001  0.981 -0.001 -0.001  0.001
      -0.001 -0.001  0.981  0.000  0.001
       0.000 -0.001  0.000  0.982 -0.000
      -0.001  0.001  0.001 -0.000  0.980
     SPIN  2
     eigenvalues:
       0.965  0.975  0.976  0.981  0.982
     eigenvectors (columns):
       0.159  0.053  0.728 -0.625  0.225
       0.851 -0.287  0.001  0.035 -0.439
      -0.162 -0.609  0.521  0.561  0.131
       0.466  0.157 -0.149  0.253  0.820
       0.089  0.721  0.420  0.479 -0.259
     occupation matrix ns (before diag.):
       0.978 -0.002 -0.001 -0.000 -0.002
      -0.002  0.969  0.001 -0.006  0.000
      -0.001  0.001  0.977  0.002  0.002
      -0.000 -0.006  0.002  0.978 -0.001
      -0.002  0.000  0.002 -0.001  0.977

     Number of occupied Hubbard levels =    9.7836

     negative rho (up, down):  2.384E-02 2.242E-02

     total cpu time spent up to now is       47.6 secs

     total energy              =    -577.28621709 Ry
     estimated scf accuracy    <      18.46446700 Ry

     total magnetization       =     1.00 Bohr mag/cell
     absolute magnetization    =     1.16 Bohr mag/cell

     iteration #  2     ecut=    58.80 Ry     beta= 0.30
     Davidson diagonalization with overlap
     ethr =  1.00E-02,  avg # of iterations =  6.0

     negative rho (up, down):  2.280E-02 2.166E-02

     total cpu time spent up to now is       71.0 secs

     total energy              =    -581.29819820 Ry
     estimated scf accuracy    <      39.57535240 Ry

     total magnetization       =     1.00 Bohr mag/cell
     absolute magnetization    =     1.13 Bohr mag/cell

     iteration #  3     ecut=    58.80 Ry     beta= 0.30
     Davidson diagonalization with overlap
     ethr =  1.00E-02,  avg # of iterations =  6.0

     negative rho (up, down):  2.328E-02 2.182E-02

     total cpu time spent up to now is       90.9 secs

     total energy              =    -583.64865410 Ry
     estimated scf accuracy    <       3.27995555 Ry

     total magnetization       =     1.00 Bohr mag/cell
     absolute magnetization    =     1.24 Bohr mag/cell

     iteration #  4     ecut=    58.80 Ry     beta= 0.30
     Davidson diagonalization with overlap
     ethr =  4.49E-03,  avg # of iterations =  2.0

     negative rho (up, down):  2.457E-02 2.276E-02

     total cpu time spent up to now is      109.1 secs

     total energy              =    -583.61279243 Ry
     estimated scf accuracy    <       1.10538820 Ry

     total magnetization       =     1.00 Bohr mag/cell
     absolute magnetization    =     1.43 Bohr mag/cell

     iteration #  5     ecut=    58.80 Ry     beta= 0.30
     Davidson diagonalization with overlap
     ethr =  1.51E-03,  avg # of iterations =  5.0

     negative rho (up, down):  2.453E-02 2.283E-02

     total cpu time spent up to now is      131.8 secs

     total energy              =    -583.63334352 Ry
     estimated scf accuracy    <       8.81233766 Ry

     total magnetization       =     1.00 Bohr mag/cell
     absolute magnetization    =     1.86 Bohr mag/cell

     iteration #  6     ecut=    58.80 Ry     beta= 0.30
     Davidson diagonalization with overlap
     ethr =  1.51E-03,  avg # of iterations =  5.5

     negative rho (up, down):  2.482E-02 2.301E-02

     total cpu time spent up to now is      151.5 secs

     total energy              =    -583.79148649 Ry
     estimated scf accuracy    <       0.45305621 Ry

     total magnetization       =     1.00 Bohr mag/cell
     absolute magnetization    =     2.29 Bohr mag/cell

     iteration #  7     ecut=    58.80 Ry     beta= 0.30
     Davidson diagonalization with overlap
     ethr =  6.21E-04,  avg # of iterations =  4.0

     negative rho (up, down):  2.542E-02 2.360E-02

     total cpu time spent up to now is      171.5 secs

     total energy              =    -584.00721217 Ry
     estimated scf accuracy    <       0.82538226 Ry

     total magnetization       =     1.00 Bohr mag/cell
     absolute magnetization    =     1.41 Bohr mag/cell

     iteration #  8     ecut=    58.80 Ry     beta= 0.30
     Davidson diagonalization with overlap
     ethr =  6.21E-04,  avg # of iterations =  1.0

     negative rho (up, down):  2.634E-02 2.450E-02

     total cpu time spent up to now is      189.5 secs

     total energy              =    -583.95927369 Ry
     estimated scf accuracy    <       0.78225080 Ry

     total magnetization       =     1.00 Bohr mag/cell
     absolute magnetization    =     1.43 Bohr mag/cell

     iteration #  9     ecut=    58.80 Ry     beta= 0.30
     Davidson diagonalization with overlap
     ethr =  6.21E-04,  avg # of iterations =  1.0

     negative rho (up, down):  2.664E-02 2.476E-02

     total cpu time spent up to now is      207.7 secs

     total energy              =    -583.90922832 Ry
     estimated scf accuracy    <       0.54994383 Ry

     total magnetization       =     1.00 Bohr mag/cell
     absolute magnetization    =     1.43 Bohr mag/cell

     iteration # 10     ecut=    58.80 Ry     beta= 0.30
     Davidson diagonalization with overlap
     ethr =  6.21E-04,  avg # of iterations =  1.5

     negative rho (up, down):  2.663E-02 2.475E-02

     total cpu time spent up to now is      225.9 secs

     total energy              =    -583.92067967 Ry
     estimated scf accuracy    <       0.29129321 Ry

     total magnetization       =     1.00 Bohr mag/cell
     absolute magnetization    =     1.44 Bohr mag/cell

     iteration # 11     ecut=    58.80 Ry     beta= 0.30
     Davidson diagonalization with overlap
     ethr =  3.99E-04,  avg # of iterations =  1.0

     negative rho (up, down):  2.654E-02 2.468E-02

     total cpu time spent up to now is      244.0 secs

     total energy              =    -583.93545017 Ry
     estimated scf accuracy    <       0.29181397 Ry

     total magnetization       =     1.00 Bohr mag/cell
     absolute magnetization    =     1.46 Bohr mag/cell

     iteration # 12     ecut=    58.80 Ry     beta= 0.30
     Davidson diagonalization with overlap
     ethr =  3.99E-04,  avg # of iterations =  1.0

     negative rho (up, down):  2.652E-02 2.466E-02

     total cpu time spent up to now is      262.1 secs

     total energy              =    -583.93442147 Ry
     estimated scf accuracy    <       0.30285611 Ry

     total magnetization       =     1.00 Bohr mag/cell
     absolute magnetization    =     1.54 Bohr mag/cell

     iteration # 13     ecut=    58.80 Ry     beta= 0.30
     Davidson diagonalization with overlap
     ethr =  3.99E-04,  avg # of iterations =  1.0

     negative rho (up, down):  2.671E-02 2.483E-02

     total cpu time spent up to now is      280.2 secs

     total energy              =    -583.92430080 Ry
     estimated scf accuracy    <       0.27938687 Ry

     total magnetization       =     1.00 Bohr mag/cell
     absolute magnetization    =     1.57 Bohr mag/cell

     iteration # 14     ecut=    58.80 Ry     beta= 0.30
     Davidson diagonalization with overlap
     ethr =  3.83E-04,  avg # of iterations =  1.0

     negative rho (up, down):  2.753E-02 2.563E-02

     total cpu time spent up to now is      298.3 secs

     total energy              =    -583.83022608 Ry
     estimated scf accuracy    <       0.20147858 Ry

     total magnetization       =     1.00 Bohr mag/cell
     absolute magnetization    =     1.58 Bohr mag/cell

     iteration # 15     ecut=    58.80 Ry     beta= 0.30
     Davidson diagonalization with overlap
     ethr =  2.76E-04,  avg # of iterations =  5.0

     negative rho (up, down):  2.696E-02 2.502E-02

     total cpu time spent up to now is      321.8 secs

     total energy              =    -583.97715644 Ry
     estimated scf accuracy    <       6.72682662 Ry

     total magnetization       =     1.00 Bohr mag/cell
     absolute magnetization    =     1.86 Bohr mag/cell

     iteration # 16     ecut=    58.80 Ry     beta= 0.30
     Davidson diagonalization with overlap
     ethr =  2.76E-04,  avg # of iterations =  1.0

     negative rho (up, down):  2.702E-02 2.512E-02

     total cpu time spent up to now is      340.0 secs

     total energy              =    -584.07643559 Ry
     estimated scf accuracy    <       4.27778049 Ry

     total magnetization       =     1.00 Bohr mag/cell
     absolute magnetization    =     2.85 Bohr mag/cell

     iteration # 17     ecut=    58.80 Ry     beta= 0.30
     Davidson diagonalization with overlap
     ethr =  2.76E-04,  avg # of iterations =  1.0

     negative rho (up, down):  2.753E-02 2.556E-02

     total cpu time spent up to now is      358.2 secs

     total energy              =    -584.04979260 Ry
     estimated scf accuracy    <       4.65190314 Ry

     total magnetization       =     1.00 Bohr mag/cell
     absolute magnetization    =     2.79 Bohr mag/cell

     iteration # 18     ecut=    58.80 Ry     beta= 0.30
     Davidson diagonalization with overlap
     ethr =  2.76E-04,  avg # of iterations =  1.0

     negative rho (up, down):  2.657E-02 2.474E-02

     total cpu time spent up to now is      376.3 secs

     total energy              =    -584.06153215 Ry
     estimated scf accuracy    <       4.39695791 Ry

     total magnetization       =     1.00 Bohr mag/cell
     absolute magnetization    =     2.85 Bohr mag/cell

     iteration # 19     ecut=    58.80 Ry     beta= 0.30
     Davidson diagonalization with overlap
     ethr =  2.76E-04,  avg # of iterations =  1.0

     negative rho (up, down):  2.652E-02 2.465E-02

     total cpu time spent up to now is      394.4 secs

     total energy              =    -583.97043800 Ry
     estimated scf accuracy    <       5.00846481 Ry

     total magnetization       =     1.00 Bohr mag/cell
     absolute magnetization    =     2.62 Bohr mag/cell

     iteration # 20     ecut=    58.80 Ry     beta= 0.30
     Davidson diagonalization with overlap
     ethr =  2.76E-04,  avg # of iterations =  1.0

     negative rho (up, down):  2.648E-02 2.459E-02

     total cpu time spent up to now is      412.5 secs

     total energy              =    -583.70848929 Ry
     estimated scf accuracy    <       4.25035807 Ry

     total magnetization       =     1.00 Bohr mag/cell
     absolute magnetization    =     2.75 Bohr mag/cell

     iteration # 21     ecut=    58.80 Ry     beta= 0.30
     Davidson diagonalization with overlap
     ethr =  2.76E-04,  avg # of iterations =  6.0

     negative rho (up, down):  2.655E-02 2.474E-02

     total cpu time spent up to now is      433.4 secs

     total energy              =    -583.91495303 Ry
     estimated scf accuracy    <       0.07038795 Ry

     total magnetization       =     1.00 Bohr mag/cell
     absolute magnetization    =     2.26 Bohr mag/cell

     iteration # 22     ecut=    58.80 Ry     beta= 0.30
     Davidson diagonalization with overlap
     ethr =  9.64E-05,  avg # of iterations =  4.5

     negative rho (up, down):  2.656E-02 2.476E-02

     total cpu time spent up to now is      452.8 secs

     total energy              =    -583.93715965 Ry
     estimated scf accuracy    <       0.26866590 Ry

     total magnetization       =     1.00 Bohr mag/cell
     absolute magnetization    =     2.71 Bohr mag/cell

     iteration # 23     ecut=    58.80 Ry     beta= 0.30
     Davidson diagonalization with overlap
     ethr =  9.64E-05,  avg # of iterations =  1.0

     negative rho (up, down):  2.663E-02 2.476E-02

     total cpu time spent up to now is      471.0 secs

     total energy              =    -583.96459819 Ry
     estimated scf accuracy    <       0.27683435 Ry

     total magnetization       =     1.00 Bohr mag/cell
     absolute magnetization    =     2.70 Bohr mag/cell

     iteration # 24     ecut=    58.80 Ry     beta= 0.30
     Davidson diagonalization with overlap
     ethr =  9.64E-05,  avg # of iterations =  3.0

     negative rho (up, down):  2.677E-02 2.484E-02

     total cpu time spent up to now is      489.7 secs

     total energy              =    -583.97999608 Ry
     estimated scf accuracy    <       0.47745612 Ry

     total magnetization       =     1.00 Bohr mag/cell
     absolute magnetization    =     3.00 Bohr mag/cell

     iteration # 25     ecut=    58.80 Ry     beta= 0.30
     Davidson diagonalization with overlap
     ethr =  9.64E-05,  avg # of iterations =  3.0

     negative rho (up, down):  2.688E-02 2.473E-02

     total cpu time spent up to now is      508.7 secs

     total energy              =    -583.96542284 Ry
     estimated scf accuracy    <       0.46257479 Ry

     total magnetization       =     1.00 Bohr mag/cell
     absolute magnetization    =     3.04 Bohr mag/cell

     iteration # 26     ecut=    58.80 Ry     beta= 0.30
     Davidson diagonalization with overlap
     ethr =  9.64E-05,  avg # of iterations =  5.0

     negative rho (up, down):  2.693E-02 2.465E-02

     total cpu time spent up to now is      528.1 secs

     total energy              =    -583.97020554 Ry
     estimated scf accuracy    <       0.28309951 Ry

     total magnetization       =     1.00 Bohr mag/cell
     absolute magnetization    =     3.07 Bohr mag/cell

     iteration # 27     ecut=    58.80 Ry     beta= 0.30
     Davidson diagonalization with overlap
     ethr =  9.64E-05,  avg # of iterations =  1.0

     negative rho (up, down):  2.717E-02 2.460E-02

     total cpu time spent up to now is      546.2 secs

     total energy              =    -583.96163409 Ry
     estimated scf accuracy    <       0.25037600 Ry

     total magnetization       =     1.00 Bohr mag/cell
     absolute magnetization    =     3.10 Bohr mag/cell

     iteration # 28     ecut=    58.80 Ry     beta= 0.30
     Davidson diagonalization with overlap
     ethr =  9.64E-05,  avg # of iterations =  5.0

     negative rho (up, down):  2.728E-02 2.449E-02

     total cpu time spent up to now is      566.1 secs

     total energy              =    -584.00146179 Ry
     estimated scf accuracy    <       0.16087616 Ry

     total magnetization       =     1.00 Bohr mag/cell
     absolute magnetization    =     3.19 Bohr mag/cell

     iteration # 29     ecut=    58.80 Ry     beta= 0.30
     Davidson diagonalization with overlap
     ethr =  9.64E-05,  avg # of iterations =  1.0

     negative rho (up, down):  2.743E-02 2.435E-02

     total cpu time spent up to now is      584.3 secs

     total energy              =    -584.01103974 Ry
     estimated scf accuracy    <       0.15211127 Ry

     total magnetization       =     1.00 Bohr mag/cell
     absolute magnetization    =     3.24 Bohr mag/cell

     iteration # 30     ecut=    58.80 Ry     beta= 0.30
     Davidson diagonalization with overlap
     ethr =  9.64E-05,  avg # of iterations =  6.5

     negative rho (up, down):  2.763E-02 2.430E-02

     total cpu time spent up to now is      603.8 secs

     total energy              =    -584.05269021 Ry
     estimated scf accuracy    <       0.22624333 Ry

     total magnetization       =     1.00 Bohr mag/cell
     absolute magnetization    =     3.31 Bohr mag/cell

     iteration # 31     ecut=    58.80 Ry     beta= 0.30
     Davidson diagonalization with overlap
     ethr =  9.64E-05,  avg # of iterations =  3.0

     negative rho (up, down):  2.760E-02 2.436E-02

     total cpu time spent up to now is      622.4 secs

     total energy              =    -584.07361369 Ry
     estimated scf accuracy    <       0.31177126 Ry

     total magnetization       =     1.00 Bohr mag/cell
     absolute magnetization    =     3.39 Bohr mag/cell

     iteration # 32     ecut=    58.80 Ry     beta= 0.30
     Davidson diagonalization with overlap
     ethr =  9.64E-05,  avg # of iterations =  3.0

     negative rho (up, down):  2.770E-02 2.444E-02

     total cpu time spent up to now is      641.1 secs

     total energy              =    -584.09710759 Ry
     estimated scf accuracy    <       0.35814118 Ry

     total magnetization       =     1.00 Bohr mag/cell
     absolute magnetization    =     3.39 Bohr mag/cell

     iteration # 33     ecut=    58.80 Ry     beta= 0.30
     Davidson diagonalization with overlap
     ethr =  9.64E-05,  avg # of iterations =  2.5

     negative rho (up, down):  2.758E-02 2.430E-02

     total cpu time spent up to now is      659.7 secs

     total energy              =    -584.02297587 Ry
     estimated scf accuracy    <       0.43938973 Ry

     total magnetization       =     1.00 Bohr mag/cell
     absolute magnetization    =     3.45 Bohr mag/cell

     iteration # 34     ecut=    58.80 Ry     beta= 0.30
     Davidson diagonalization with overlap
     ethr =  9.64E-05,  avg # of iterations =  6.0

     negative rho (up, down):  2.755E-02 2.430E-02

     total cpu time spent up to now is      679.2 secs

     total energy              =    -584.00372104 Ry
     estimated scf accuracy    <       0.17898714 Ry

     total magnetization       =     1.00 Bohr mag/cell
     absolute magnetization    =     3.29 Bohr mag/cell

     iteration # 35     ecut=    58.80 Ry     beta= 0.30
     Davidson diagonalization with overlap
     ethr =  9.64E-05,  avg # of iterations =  4.0

     negative rho (up, down):  2.757E-02 2.432E-02

     total cpu time spent up to now is      698.1 secs

     total energy              =    -584.02494749 Ry
     estimated scf accuracy    <       0.23197511 Ry

     total magnetization       =     1.00 Bohr mag/cell
     absolute magnetization    =     3.33 Bohr mag/cell

     iteration # 36     ecut=    58.80 Ry     beta= 0.30
     Davidson diagonalization with overlap
     ethr =  9.64E-05,  avg # of iterations =  1.0

     negative rho (up, down):  2.735E-02 2.451E-02

     total cpu time spent up to now is      716.2 secs

     total energy              =    -584.03399027 Ry
     estimated scf accuracy    <       0.22860208 Ry

     total magnetization       =     1.00 Bohr mag/cell
     absolute magnetization    =     3.33 Bohr mag/cell

     iteration # 37     ecut=    58.80 Ry     beta= 0.30
     Davidson diagonalization with overlap
     ethr =  9.64E-05,  avg # of iterations =  5.5

     negative rho (up, down):  2.761E-02 2.428E-02

     total cpu time spent up to now is      738.9 secs

     total energy              =    -583.97312856 Ry
     estimated scf accuracy    <       0.38678170 Ry

     total magnetization       =     1.00 Bohr mag/cell
     absolute magnetization    =     3.34 Bohr mag/cell

     iteration # 38     ecut=    58.80 Ry     beta= 0.30
     Davidson diagonalization with overlap
     ethr =  9.64E-05,  avg # of iterations =  6.0

     negative rho (up, down):  2.763E-02 2.429E-02

     total cpu time spent up to now is      760.4 secs

     total energy              =    -584.04577187 Ry
     estimated scf accuracy    <       0.28132150 Ry

     total magnetization       =     1.00 Bohr mag/cell
     absolute magnetization    =     3.36 Bohr mag/cell

     iteration # 39     ecut=    58.80 Ry     beta= 0.30
     Davidson diagonalization with overlap
     ethr =  9.64E-05,  avg # of iterations =  1.0

     negative rho (up, down):  2.764E-02 2.435E-02

     total cpu time spent up to now is      778.5 secs

     total energy              =    -584.04502254 Ry
     estimated scf accuracy    <       0.27631933 Ry

     total magnetization       =     1.00 Bohr mag/cell
     absolute magnetization    =     3.36 Bohr mag/cell

     iteration # 40     ecut=    58.80 Ry     beta= 0.30
     Davidson diagonalization with overlap
     ethr =  9.64E-05,  avg # of iterations =  1.5

     negative rho (up, down):  2.768E-02 2.438E-02

     total cpu time spent up to now is      796.7 secs

     total energy              =    -584.04698046 Ry
     estimated scf accuracy    <       0.27485525 Ry

     total magnetization       =     1.00 Bohr mag/cell
     absolute magnetization    =     3.36 Bohr mag/cell

     iteration # 41     ecut=    58.80 Ry     beta= 0.30
     Davidson diagonalization with overlap
     ethr =  9.64E-05,  avg # of iterations =  1.0

     negative rho (up, down):  2.770E-02 2.445E-02

     total cpu time spent up to now is      814.8 secs

     total energy              =    -584.04544403 Ry
     estimated scf accuracy    <       0.27447066 Ry

     total magnetization       =     1.00 Bohr mag/cell
     absolute magnetization    =     3.36 Bohr mag/cell

     iteration # 42     ecut=    58.80 Ry     beta= 0.30
     Davidson diagonalization with overlap
     ethr =  9.64E-05,  avg # of iterations =  1.5

     negative rho (up, down):  2.774E-02 2.442E-02

     total cpu time spent up to now is      833.1 secs

     total energy              =    -584.03857430 Ry
     estimated scf accuracy    <       0.27265613 Ry

     total magnetization       =     1.00 Bohr mag/cell
     absolute magnetization    =     3.37 Bohr mag/cell

     iteration # 43     ecut=    58.80 Ry     beta= 0.30
     Davidson diagonalization with overlap
     ethr =  9.64E-05,  avg # of iterations =  1.0

     negative rho (up, down):  2.775E-02 2.456E-02

     total cpu time spent up to now is      851.1 secs

     total energy              =    -584.01946778 Ry
     estimated scf accuracy    <       0.25923718 Ry

     total magnetization       =     1.00 Bohr mag/cell
     absolute magnetization    =     3.37 Bohr mag/cell

     iteration # 44     ecut=    58.80 Ry     beta= 0.30
     Davidson diagonalization with overlap
     ethr =  9.64E-05,  avg # of iterations =  6.0

     negative rho (up, down):  2.784E-02 2.439E-02

     total cpu time spent up to now is      871.4 secs

     total energy              =    -583.96939211 Ry
     estimated scf accuracy    <       0.40519195 Ry

     total magnetization       =     1.00 Bohr mag/cell
     absolute magnetization    =     3.43 Bohr mag/cell

     iteration # 45     ecut=    58.80 Ry     beta= 0.30
     Davidson diagonalization with overlap
     ethr =  9.64E-05,  avg # of iterations =  5.5

     negative rho (up, down):  2.781E-02 2.453E-02

     total cpu time spent up to now is      892.9 secs

     total energy              =    -584.01278925 Ry
     estimated scf accuracy    <       0.19927700 Ry

     total magnetization       =     1.00 Bohr mag/cell
     absolute magnetization    =     3.32 Bohr mag/cell

     iteration # 46     ecut=    58.80 Ry     beta= 0.30
     Davidson diagonalization with overlap
     ethr =  9.64E-05,  avg # of iterations =  5.5

     negative rho (up, down):  2.764E-02 2.469E-02

     total cpu time spent up to now is      912.2 secs

     total energy              =    -583.88887163 Ry
     estimated scf accuracy    <       0.15975810 Ry

     total magnetization       =     1.00 Bohr mag/cell
     absolute magnetization    =     3.30 Bohr mag/cell

     iteration # 47     ecut=    58.80 Ry     beta= 0.30
     Davidson diagonalization with overlap
     ethr =  9.64E-05,  avg # of iterations =  5.5

     negative rho (up, down):  2.785E-02 2.449E-02

     total cpu time spent up to now is      935.6 secs

     total energy              =    -583.96380814 Ry
     estimated scf accuracy    <       0.41767690 Ry

     total magnetization       =     1.00 Bohr mag/cell
     absolute magnetization    =     3.42 Bohr mag/cell

     iteration # 48     ecut=    58.80 Ry     beta= 0.30
     Davidson diagonalization with overlap
     ethr =  9.64E-05,  avg # of iterations =  6.5

     negative rho (up, down):  2.794E-02 2.457E-02

     total cpu time spent up to now is      958.2 secs

     total energy              =    -584.01073182 Ry
     estimated scf accuracy    <       0.20461215 Ry

     total magnetization       =     1.00 Bohr mag/cell
     absolute magnetization    =     3.36 Bohr mag/cell

     iteration # 49     ecut=    58.80 Ry     beta= 0.30
     Davidson diagonalization with overlap
     ethr =  9.64E-05,  avg # of iterations =  1.0

     negative rho (up, down):  2.786E-02 2.456E-02

     total cpu time spent up to now is      976.3 secs

     total energy              =    -584.01409495 Ry
     estimated scf accuracy    <       0.18147657 Ry

     total magnetization       =     1.00 Bohr mag/cell
     absolute magnetization    =     3.36 Bohr mag/cell

     iteration # 50     ecut=    58.80 Ry     beta= 0.30
     Davidson diagonalization with overlap
     ethr =  9.64E-05,  avg # of iterations =  1.5

     negative rho (up, down):  2.784E-02 2.463E-02

     total cpu time spent up to now is      994.5 secs

     total energy              =    -584.00073081 Ry
     estimated scf accuracy    <       0.18379358 Ry

     total magnetization       =     1.00 Bohr mag/cell
     absolute magnetization    =     3.36 Bohr mag/cell

     iteration # 51     ecut=    58.80 Ry     beta= 0.30
     Davidson diagonalization with overlap
     ethr =  9.64E-05,  avg # of iterations =  6.5

     negative rho (up, down):  2.787E-02 2.461E-02

     total cpu time spent up to now is     1013.9 secs

     total energy              =    -584.03164361 Ry
     estimated scf accuracy    <       0.27874320 Ry

     total magnetization       =     1.00 Bohr mag/cell
     absolute magnetization    =     3.38 Bohr mag/cell

     iteration # 52     ecut=    58.80 Ry     beta= 0.30
     Davidson diagonalization with overlap
     ethr =  9.64E-05,  avg # of iterations =  1.0

     negative rho (up, down):  2.793E-02 2.459E-02

     total cpu time spent up to now is     1032.1 secs

     total energy              =    -584.00587465 Ry
     estimated scf accuracy    <       0.24070299 Ry

     total magnetization       =     1.00 Bohr mag/cell
     absolute magnetization    =     3.38 Bohr mag/cell

     iteration # 53     ecut=    58.80 Ry     beta= 0.30
     Davidson diagonalization with overlap
     ethr =  9.64E-05,  avg # of iterations =  1.5

     negative rho (up, down):  2.791E-02 2.463E-02

     total cpu time spent up to now is     1050.4 secs

     total energy              =    -584.00741381 Ry
     estimated scf accuracy    <       0.19081354 Ry

     total magnetization       =     1.00 Bohr mag/cell
     absolute magnetization    =     3.38 Bohr mag/cell

     iteration # 54     ecut=    58.80 Ry     beta= 0.30
     Davidson diagonalization with overlap
     ethr =  9.64E-05,  avg # of iterations =  1.0

     negative rho (up, down):  2.792E-02 2.463E-02

     total cpu time spent up to now is     1068.5 secs

     total energy              =    -583.99195660 Ry
     estimated scf accuracy    <       0.18745655 Ry

     total magnetization       =     1.00 Bohr mag/cell
     absolute magnetization    =     3.38 Bohr mag/cell

     iteration # 55     ecut=    58.80 Ry     beta= 0.30
     Davidson diagonalization with overlap
     ethr =  9.64E-05,  avg # of iterations =  4.5

     negative rho (up, down):  2.791E-02 2.464E-02

     total cpu time spent up to now is     1087.5 secs

     total energy              =    -584.00136008 Ry
     estimated scf accuracy    <       0.04110974 Ry

     total magnetization       =     1.00 Bohr mag/cell
     absolute magnetization    =     3.27 Bohr mag/cell

     iteration # 56     ecut=    58.80 Ry     beta= 0.30
     Davidson diagonalization with overlap
     ethr =  5.63E-05,  avg # of iterations =  3.5

     negative rho (up, down):  2.795E-02 2.464E-02

     total cpu time spent up to now is     1106.4 secs

     total energy              =    -584.00508683 Ry
     estimated scf accuracy    <       0.03087183 Ry

     total magnetization       =     1.00 Bohr mag/cell
     absolute magnetization    =     3.27 Bohr mag/cell

     iteration # 57     ecut=    58.80 Ry     beta= 0.30
     Davidson diagonalization with overlap
     ethr =  4.23E-05,  avg # of iterations =  1.0

     negative rho (up, down):  2.796E-02 2.463E-02

     total cpu time spent up to now is     1124.5 secs

     total energy              =    -583.99941259 Ry
     estimated scf accuracy    <       0.02763766 Ry

     total magnetization       =     1.00 Bohr mag/cell
     absolute magnetization    =     3.27 Bohr mag/cell

     iteration # 58     ecut=    58.80 Ry     beta= 0.30
     Davidson diagonalization with overlap
     ethr =  3.79E-05,  avg # of iterations =  3.5

     negative rho (up, down):  2.797E-02 2.461E-02

     total cpu time spent up to now is     1143.5 secs

     total energy              =    -584.01648788 Ry
     estimated scf accuracy    <       0.12082378 Ry

     total magnetization       =     1.00 Bohr mag/cell
     absolute magnetization    =     3.30 Bohr mag/cell

     iteration # 59     ecut=    58.80 Ry     beta= 0.30
     Davidson diagonalization with overlap
     ethr =  3.79E-05,  avg # of iterations =  1.5

     negative rho (up, down):  2.781E-02 2.464E-02

     total cpu time spent up to now is     1161.8 secs

     total energy              =    -583.99487868 Ry
     estimated scf accuracy    <       0.13024262 Ry

     total magnetization       =     1.00 Bohr mag/cell
     absolute magnetization    =     3.31 Bohr mag/cell

     iteration # 60     ecut=    58.80 Ry     beta= 0.30
     Davidson diagonalization with overlap
     ethr =  3.79E-05,  avg # of iterations =  5.0

     negative rho (up, down):  2.796E-02 2.463E-02

     total cpu time spent up to now is     1181.1 secs

     total energy              =    -584.00279994 Ry
     estimated scf accuracy    <       0.17097171 Ry

     total magnetization       =     1.00 Bohr mag/cell
     absolute magnetization    =     3.37 Bohr mag/cell

     iteration # 61     ecut=    58.80 Ry     beta= 0.30
     Davidson diagonalization with overlap
     ethr =  3.79E-05,  avg # of iterations =  5.0

     negative rho (up, down):  2.793E-02 2.462E-02

     total cpu time spent up to now is     1200.6 secs

     total energy              =    -584.01010724 Ry
     estimated scf accuracy    <       0.19090164 Ry

     total magnetization       =     1.00 Bohr mag/cell
     absolute magnetization    =     3.36 Bohr mag/cell

     iteration # 62     ecut=    58.80 Ry     beta= 0.30
     Davidson diagonalization with overlap
     ethr =  3.79E-05,  avg # of iterations =  1.0

     negative rho (up, down):  2.791E-02 2.463E-02

     total cpu time spent up to now is     1218.8 secs

     total energy              =    -583.99729066 Ry
     estimated scf accuracy    <       0.17457998 Ry

     total magnetization       =     1.00 Bohr mag/cell
     absolute magnetization    =     3.35 Bohr mag/cell

     iteration # 63     ecut=    58.80 Ry     beta= 0.30
     Davidson diagonalization with overlap
     ethr =  3.79E-05,  avg # of iterations =  5.5

     negative rho (up, down):  2.790E-02 2.463E-02

     total cpu time spent up to now is     1238.4 secs

     total energy              =    -584.01018607 Ry
     estimated scf accuracy    <       0.10058392 Ry

     total magnetization       =     1.00 Bohr mag/cell
     absolute magnetization    =     3.31 Bohr mag/cell

     iteration # 64     ecut=    58.80 Ry     beta= 0.30
     Davidson diagonalization with overlap
     ethr =  3.79E-05,  avg # of iterations =  1.0

     negative rho (up, down):  2.788E-02 2.463E-02

     total cpu time spent up to now is     1256.4 secs

     total energy              =    -584.00494139 Ry
     estimated scf accuracy    <       0.09972147 Ry

     total magnetization       =     1.00 Bohr mag/cell
     absolute magnetization    =     3.31 Bohr mag/cell

     iteration # 65     ecut=    58.80 Ry     beta= 0.30
     Davidson diagonalization with overlap
     ethr =  3.79E-05,  avg # of iterations =  3.5

     negative rho (up, down):  2.782E-02 2.465E-02

     total cpu time spent up to now is     1275.2 secs

     total energy              =    -584.00676134 Ry
     estimated scf accuracy    <       0.01592779 Ry

     total magnetization       =     1.00 Bohr mag/cell
     absolute magnetization    =     3.27 Bohr mag/cell

     iteration # 66     ecut=    58.80 Ry     beta= 0.30
     Davidson diagonalization with overlap
     ethr =  2.18E-05,  avg # of iterations =  3.5

     negative rho (up, down):  2.782E-02 2.464E-02

     total cpu time spent up to now is     1294.1 secs

     total energy              =    -584.00647867 Ry
     estimated scf accuracy    <       0.09796914 Ry

     total magnetization       =     1.00 Bohr mag/cell
     absolute magnetization    =     3.32 Bohr mag/cell

     iteration # 67     ecut=    58.80 Ry     beta= 0.30
     Davidson diagonalization with overlap
     ethr =  2.18E-05,  avg # of iterations =  1.0

     negative rho (up, down):  2.782E-02 2.464E-02

     total cpu time spent up to now is     1312.2 secs

     total energy              =    -584.00848242 Ry
     estimated scf accuracy    <       0.09269801 Ry

     total magnetization       =     1.00 Bohr mag/cell
     absolute magnetization    =     3.32 Bohr mag/cell

     iteration # 68     ecut=    58.80 Ry     beta= 0.30
     Davidson diagonalization with overlap
     ethr =  2.18E-05,  avg # of iterations =  1.0

     negative rho (up, down):  2.785E-02 2.463E-02

     total cpu time spent up to now is     1330.3 secs

     total energy              =    -583.99985857 Ry
     estimated scf accuracy    <       0.09545912 Ry

     total magnetization       =     1.00 Bohr mag/cell
     absolute magnetization    =     3.32 Bohr mag/cell

     iteration # 69     ecut=    58.80 Ry     beta= 0.30
     Davidson diagonalization with overlap
     ethr =  2.18E-05,  avg # of iterations =  4.0

     negative rho (up, down):  2.786E-02 2.463E-02

     total cpu time spent up to now is     1349.2 secs

     total energy              =    -584.00833601 Ry
     estimated scf accuracy    <       0.02323605 Ry

     total magnetization       =     1.00 Bohr mag/cell
     absolute magnetization    =     3.28 Bohr mag/cell

     iteration # 70     ecut=    58.80 Ry     beta= 0.30
     Davidson diagonalization with overlap
     ethr =  2.18E-05,  avg # of iterations =  1.5

     negative rho (up, down):  2.787E-02 2.463E-02

     total cpu time spent up to now is     1367.4 secs

     total energy              =    -584.01047297 Ry
     estimated scf accuracy    <       0.02714615 Ry

     total magnetization       =     1.00 Bohr mag/cell
     absolute magnetization    =     3.28 Bohr mag/cell

     iteration # 71     ecut=    58.80 Ry     beta= 0.30
     Davidson diagonalization with overlap
     ethr =  2.18E-05,  avg # of iterations =  3.5

     negative rho (up, down):  2.786E-02 2.463E-02

     total cpu time spent up to now is     1386.2 secs

     total energy              =    -584.00880915 Ry
     estimated scf accuracy    <       0.05069093 Ry

     total magnetization       =     1.00 Bohr mag/cell
     absolute magnetization    =     3.30 Bohr mag/cell

     iteration # 72     ecut=    58.80 Ry     beta= 0.30
     Davidson diagonalization with overlap
     ethr =  2.18E-05,  avg # of iterations =  1.0

     negative rho (up, down):  2.786E-02 2.463E-02

     total cpu time spent up to now is     1404.3 secs

     total energy              =    -584.00948037 Ry
     estimated scf accuracy    <       0.04544917 Ry

     total magnetization       =     1.00 Bohr mag/cell
     absolute magnetization    =     3.30 Bohr mag/cell

     iteration # 73     ecut=    58.80 Ry     beta= 0.30
     Davidson diagonalization with overlap
     ethr =  2.18E-05,  avg # of iterations =  3.5

     negative rho (up, down):  2.783E-02 2.464E-02

     total cpu time spent up to now is     1423.0 secs

     total energy              =    -584.01009069 Ry
     estimated scf accuracy    <       0.09084389 Ry

     total magnetization       =     1.00 Bohr mag/cell
     absolute magnetization    =     3.30 Bohr mag/cell

     iteration # 74     ecut=    58.80 Ry     beta= 0.30
     Davidson diagonalization with overlap
     ethr =  2.18E-05,  avg # of iterations =  1.0

     negative rho (up, down):  2.783E-02 2.463E-02

     total cpu time spent up to now is     1441.1 secs

     total energy              =    -584.01057171 Ry
     estimated scf accuracy    <       0.09077680 Ry

     total magnetization       =     1.00 Bohr mag/cell
     absolute magnetization    =     3.30 Bohr mag/cell

     iteration # 75     ecut=    58.80 Ry     beta= 0.30
     Davidson diagonalization with overlap
     ethr =  2.18E-05,  avg # of iterations =  1.0

     negative rho (up, down):  2.783E-02 2.464E-02

     total cpu time spent up to now is     1459.2 secs

     total energy              =    -584.00979609 Ry
     estimated scf accuracy    <       0.09153664 Ry

     total magnetization       =     1.00 Bohr mag/cell
     absolute magnetization    =     3.30 Bohr mag/cell

     iteration # 76     ecut=    58.80 Ry     beta= 0.30
     Davidson diagonalization with overlap
     ethr =  2.18E-05,  avg # of iterations =  1.0

     negative rho (up, down):  2.780E-02 2.464E-02

     total cpu time spent up to now is     1477.3 secs

     total energy              =    -584.00983202 Ry
     estimated scf accuracy    <       0.09021757 Ry

     total magnetization       =     1.00 Bohr mag/cell
     absolute magnetization    =     3.30 Bohr mag/cell

     iteration # 77     ecut=    58.80 Ry     beta= 0.30
     Davidson diagonalization with overlap
     ethr =  2.18E-05,  avg # of iterations =  4.0

     negative rho (up, down):  2.779E-02 2.464E-02

     total cpu time spent up to now is     1496.0 secs

     total energy              =    -583.99208719 Ry
     estimated scf accuracy    <       0.07933338 Ry

     total magnetization       =     1.00 Bohr mag/cell
     absolute magnetization    =     3.33 Bohr mag/cell

     iteration # 78     ecut=    58.80 Ry     beta= 0.30
     Davidson diagonalization with overlap
     ethr =  2.18E-05,  avg # of iterations =  5.0

     negative rho (up, down):  2.781E-02 2.463E-02

     total cpu time spent up to now is     1516.8 secs

     total energy              =    -584.00091801 Ry
     estimated scf accuracy    <       0.19315268 Ry

     total magnetization       =     1.00 Bohr mag/cell
     absolute magnetization    =     3.38 Bohr mag/cell

     iteration # 79     ecut=    58.80 Ry     beta= 0.30
     Davidson diagonalization with overlap
     ethr =  2.18E-05,  avg # of iterations =  5.0

     negative rho (up, down):  2.779E-02 2.464E-02

     total cpu time spent up to now is     1536.3 secs

     total energy              =    -584.00613962 Ry
     estimated scf accuracy    <       0.01106794 Ry

     total magnetization       =     1.00 Bohr mag/cell
     absolute magnetization    =     3.28 Bohr mag/cell

     iteration # 80     ecut=    58.80 Ry     beta= 0.30
     Davidson diagonalization with overlap
     ethr =  1.52E-05,  avg # of iterations =  1.0

     negative rho (up, down):  2.779E-02 2.464E-02

     total cpu time spent up to now is     1554.3 secs

     total energy              =    -584.00601121 Ry
     estimated scf accuracy    <       0.01033756 Ry

     total magnetization       =     1.00 Bohr mag/cell
     absolute magnetization    =     3.28 Bohr mag/cell

     iteration # 81     ecut=    58.80 Ry     beta= 0.30
     Davidson diagonalization with overlap
     ethr =  1.42E-05,  avg # of iterations =  1.0

     negative rho (up, down):  2.779E-02 2.465E-02

     total cpu time spent up to now is     1572.5 secs

     total energy              =    -584.00604200 Ry
     estimated scf accuracy    <       0.00989050 Ry

     total magnetization       =     1.00 Bohr mag/cell
     absolute magnetization    =     3.28 Bohr mag/cell

     iteration # 82     ecut=    58.80 Ry     beta= 0.30
     Davidson diagonalization with overlap
     ethr =  1.35E-05,  avg # of iterations =  1.0

     negative rho (up, down):  2.779E-02 2.465E-02

     total cpu time spent up to now is     1590.5 secs

     total energy              =    -584.00600780 Ry
     estimated scf accuracy    <       0.00979931 Ry

     total magnetization       =     1.00 Bohr mag/cell
     absolute magnetization    =     3.28 Bohr mag/cell

     iteration # 83     ecut=    58.80 Ry     beta= 0.30
     Davidson diagonalization with overlap
     ethr =  1.34E-05,  avg # of iterations =  1.0

     negative rho (up, down):  2.778E-02 2.464E-02

     total cpu time spent up to now is     1608.6 secs

     total energy              =    -584.00580306 Ry
     estimated scf accuracy    <       0.00961270 Ry

     total magnetization       =     1.00 Bohr mag/cell
     absolute magnetization    =     3.28 Bohr mag/cell

     iteration # 84     ecut=    58.80 Ry     beta= 0.30
     Davidson diagonalization with overlap
     ethr =  1.32E-05,  avg # of iterations =  3.0

     negative rho (up, down):  2.777E-02 2.464E-02

     total cpu time spent up to now is     1627.2 secs

     total energy              =    -584.00561504 Ry
     estimated scf accuracy    <       0.00863837 Ry

     total magnetization       =     1.00 Bohr mag/cell
     absolute magnetization    =     3.28 Bohr mag/cell

     iteration # 85     ecut=    58.80 Ry     beta= 0.30
     Davidson diagonalization with overlap
     ethr =  1.18E-05,  avg # of iterations =  3.5

     negative rho (up, down):  2.778E-02 2.464E-02

     total cpu time spent up to now is     1645.9 secs

     total energy              =    -584.00620540 Ry
     estimated scf accuracy    <       0.00195972 Ry

     total magnetization       =     1.00 Bohr mag/cell
     absolute magnetization    =     3.28 Bohr mag/cell

     iteration # 86     ecut=    58.80 Ry     beta= 0.30
     Davidson diagonalization with overlap
     ethr =  2.68E-06,  avg # of iterations =  1.0

     negative rho (up, down):  2.777E-02 2.464E-02

     total cpu time spent up to now is     1663.9 secs

     total energy              =    -584.00634634 Ry
     estimated scf accuracy    <       0.00202937 Ry

     total magnetization       =     1.00 Bohr mag/cell
     absolute magnetization    =     3.28 Bohr mag/cell

     iteration # 87     ecut=    58.80 Ry     beta= 0.30
     Davidson diagonalization with overlap
     ethr =  2.68E-06,  avg # of iterations =  1.0

     negative rho (up, down):  2.777E-02 2.464E-02

     total cpu time spent up to now is     1682.0 secs

     total energy              =    -584.00660636 Ry
     estimated scf accuracy    <       0.00234696 Ry

     total magnetization       =     1.00 Bohr mag/cell
     absolute magnetization    =     3.28 Bohr mag/cell

     iteration # 88     ecut=    58.80 Ry     beta= 0.30
     Davidson diagonalization with overlap
     ethr =  2.68E-06,  avg # of iterations =  8.0

     negative rho (up, down):  2.777E-02 2.464E-02

     total cpu time spent up to now is     1701.9 secs

     total energy              =    -584.00706711 Ry
     estimated scf accuracy    <       0.03451442 Ry

     total magnetization       =     1.00 Bohr mag/cell
     absolute magnetization    =     3.30 Bohr mag/cell

     iteration # 89     ecut=    58.80 Ry     beta= 0.30
     Davidson diagonalization with overlap
     ethr =  2.68E-06,  avg # of iterations =  1.0

     negative rho (up, down):  2.777E-02 2.464E-02

     total cpu time spent up to now is     1719.9 secs

     total energy              =    -584.00697989 Ry
     estimated scf accuracy    <       0.03401691 Ry

     total magnetization       =     1.00 Bohr mag/cell
     absolute magnetization    =     3.30 Bohr mag/cell

     iteration # 90     ecut=    58.80 Ry     beta= 0.30
     Davidson diagonalization with overlap
     ethr =  2.68E-06,  avg # of iterations =  1.0

     negative rho (up, down):  2.777E-02 2.464E-02

     total cpu time spent up to now is     1737.9 secs

     total energy              =    -584.00641819 Ry
     estimated scf accuracy    <       0.03374945 Ry

     total magnetization       =     1.00 Bohr mag/cell
     absolute magnetization    =     3.30 Bohr mag/cell

     iteration # 91     ecut=    58.80 Ry     beta= 0.30
     Davidson diagonalization with overlap
     ethr =  2.68E-06,  avg # of iterations =  1.0

     negative rho (up, down):  2.777E-02 2.464E-02

     total cpu time spent up to now is     1755.9 secs

     total energy              =    -584.00619737 Ry
     estimated scf accuracy    <       0.03256608 Ry

     total magnetization       =     1.00 Bohr mag/cell
     absolute magnetization    =     3.30 Bohr mag/cell

     iteration # 92     ecut=    58.80 Ry     beta= 0.30
     Davidson diagonalization with overlap
     ethr =  2.68E-06,  avg # of iterations =  3.5

     negative rho (up, down):  2.777E-02 2.464E-02

     total cpu time spent up to now is     1774.7 secs

     total energy              =    -584.00663131 Ry
     estimated scf accuracy    <       0.00875372 Ry

     total magnetization       =     1.00 Bohr mag/cell
     absolute magnetization    =     3.28 Bohr mag/cell

     iteration # 93     ecut=    58.80 Ry     beta= 0.30
     Davidson diagonalization with overlap
     ethr =  2.68E-06,  avg # of iterations =  1.0

     negative rho (up, down):  2.776E-02 2.465E-02

     total cpu time spent up to now is     1792.7 secs

     total energy              =    -584.00683216 Ry
     estimated scf accuracy    <       0.00932982 Ry

     total magnetization       =     1.00 Bohr mag/cell
     absolute magnetization    =     3.28 Bohr mag/cell

     iteration # 94     ecut=    58.80 Ry     beta= 0.30
     Davidson diagonalization with overlap
     ethr =  2.68E-06,  avg # of iterations =  3.5

     negative rho (up, down):  2.775E-02 2.465E-02

     total cpu time spent up to now is     1811.6 secs

     total energy              =    -584.00646991 Ry
     estimated scf accuracy    <       0.03262058 Ry

     total magnetization       =     1.00 Bohr mag/cell
     absolute magnetization    =     3.30 Bohr mag/cell

     iteration # 95     ecut=    58.80 Ry     beta= 0.30
     Davidson diagonalization with overlap
     ethr =  2.68E-06,  avg # of iterations =  1.0

     negative rho (up, down):  2.775E-02 2.465E-02

     total cpu time spent up to now is     1829.7 secs

     total energy              =    -584.00566933 Ry
     estimated scf accuracy    <       0.03102990 Ry

     total magnetization       =     1.00 Bohr mag/cell
     absolute magnetization    =     3.30 Bohr mag/cell

     iteration # 96     ecut=    58.80 Ry     beta= 0.30
     Davidson diagonalization with overlap
     ethr =  2.68E-06,  avg # of iterations =  4.0

     negative rho (up, down):  2.774E-02 2.465E-02

     total cpu time spent up to now is     1848.6 secs

     total energy              =    -584.00638937 Ry
     estimated scf accuracy    <       0.00596574 Ry

     total magnetization       =     1.00 Bohr mag/cell
     absolute magnetization    =     3.29 Bohr mag/cell

     iteration # 97     ecut=    58.80 Ry     beta= 0.30
     Davidson diagonalization with overlap
     ethr =  2.68E-06,  avg # of iterations =  1.0

     negative rho (up, down):  2.774E-02 2.466E-02

     total cpu time spent up to now is     1866.6 secs

     total energy              =    -584.00641371 Ry
     estimated scf accuracy    <       0.00596372 Ry

     total magnetization       =     1.00 Bohr mag/cell
     absolute magnetization    =     3.29 Bohr mag/cell

     iteration # 98     ecut=    58.80 Ry     beta= 0.30
     Davidson diagonalization with overlap
     ethr =  2.68E-06,  avg # of iterations =  1.0

     negative rho (up, down):  2.774E-02 2.466E-02

     total cpu time spent up to now is     1884.7 secs

     total energy              =    -584.00643930 Ry
     estimated scf accuracy    <       0.00601454 Ry

     total magnetization       =     1.00 Bohr mag/cell
     absolute magnetization    =     3.29 Bohr mag/cell

     iteration # 99     ecut=    58.80 Ry     beta= 0.30
     Davidson diagonalization with overlap
     ethr =  2.68E-06,  avg # of iterations =  1.0

     negative rho (up, down):  2.774E-02 2.466E-02

     total cpu time spent up to now is     1902.8 secs

     total energy              =    -584.00650487 Ry
     estimated scf accuracy    <       0.00605086 Ry

     total magnetization       =     1.00 Bohr mag/cell
     absolute magnetization    =     3.29 Bohr mag/cell

     iteration #100     ecut=    58.80 Ry     beta= 0.30
     Davidson diagonalization with overlap
     ethr =  2.68E-06,  avg # of iterations =  1.0

     negative rho (up, down):  2.767E-02 2.468E-02

     total cpu time spent up to now is     1920.8 secs

     total energy              =    -584.00701902 Ry
     estimated scf accuracy    <       0.00622358 Ry

     total magnetization       =     1.00 Bohr mag/cell
     absolute magnetization    =     3.29 Bohr mag/cell

     iteration #101     ecut=    58.80 Ry     beta= 0.30
     Davidson diagonalization with overlap
     ethr =  2.68E-06,  avg # of iterations =  6.5

     negative rho (up, down):  2.771E-02 2.467E-02

     total cpu time spent up to now is     1942.4 secs

     total energy              =    -584.00670821 Ry
     estimated scf accuracy    <       0.04040610 Ry

     total magnetization       =     1.00 Bohr mag/cell
     absolute magnetization    =     3.33 Bohr mag/cell

     iteration #102     ecut=    58.80 Ry     beta= 0.30
     Davidson diagonalization with overlap
     ethr =  2.68E-06,  avg # of iterations =  6.5

     negative rho (up, down):  2.774E-02 2.467E-02

     total cpu time spent up to now is     1963.0 secs

     total energy              =    -584.00431693 Ry
     estimated scf accuracy    <       0.04537781 Ry

     total magnetization       =     1.00 Bohr mag/cell
     absolute magnetization    =     3.32 Bohr mag/cell

     iteration #103     ecut=    58.80 Ry     beta= 0.30
     Davidson diagonalization with overlap
     ethr =  2.68E-06,  avg # of iterations =  7.0

     negative rho (up, down):  2.775E-02 2.466E-02

     total cpu time spent up to now is     1983.6 secs

     total energy              =    -584.00582424 Ry
     estimated scf accuracy    <       0.00833452 Ry

     total magnetization       =     1.00 Bohr mag/cell
     absolute magnetization    =     3.29 Bohr mag/cell

     iteration #104     ecut=    58.80 Ry     beta= 0.30
     Davidson diagonalization with overlap
     ethr =  2.68E-06,  avg # of iterations =  4.5

     negative rho (up, down):  2.774E-02 2.466E-02

     total cpu time spent up to now is     2002.6 secs

     total energy              =    -584.00641235 Ry
     estimated scf accuracy    <       0.00351527 Ry

     total magnetization       =     1.00 Bohr mag/cell
     absolute magnetization    =     3.29 Bohr mag/cell

     iteration #105     ecut=    58.80 Ry     beta= 0.30
     Davidson diagonalization with overlap
     ethr =  2.68E-06,  avg # of iterations =  1.5

     negative rho (up, down):  2.774E-02 2.466E-02

     total cpu time spent up to now is     2020.9 secs

     total energy              =    -584.00646548 Ry
     estimated scf accuracy    <       0.00368384 Ry

     total magnetization       =     1.00 Bohr mag/cell
     absolute magnetization    =     3.29 Bohr mag/cell

     iteration #106     ecut=    58.80 Ry     beta= 0.30
     Davidson diagonalization with overlap
     ethr =  2.68E-06,  avg # of iterations =  1.0

     negative rho (up, down):  2.774E-02 2.466E-02

     total cpu time spent up to now is     2039.1 secs

     total energy              =    -584.00632997 Ry
     estimated scf accuracy    <       0.00388772 Ry

     total magnetization       =     1.00 Bohr mag/cell
     absolute magnetization    =     3.29 Bohr mag/cell

     iteration #107     ecut=    58.80 Ry     beta= 0.30
     Davidson diagonalization with overlap
     ethr =  2.68E-06,  avg # of iterations =  1.0

     negative rho (up, down):  2.775E-02 2.466E-02

     total cpu time spent up to now is     2057.1 secs

     total energy              =    -584.00648164 Ry
     estimated scf accuracy    <       0.00376990 Ry

     total magnetization       =     1.00 Bohr mag/cell
     absolute magnetization    =     3.29 Bohr mag/cell

     iteration #108     ecut=    58.80 Ry     beta= 0.30
     Davidson diagonalization with overlap
     ethr =  2.68E-06,  avg # of iterations =  1.0

     negative rho (up, down):  2.775E-02 2.465E-02

     total cpu time spent up to now is     2075.3 secs

     total energy              =    -584.00662329 Ry
     estimated scf accuracy    <       0.00402773 Ry

     total magnetization       =     1.00 Bohr mag/cell
     absolute magnetization    =     3.29 Bohr mag/cell

     iteration #109     ecut=    58.80 Ry     beta= 0.30
     Davidson diagonalization with overlap
     ethr =  2.68E-06,  avg # of iterations =  4.0

     negative rho (up, down):  2.775E-02 2.465E-02

     total cpu time spent up to now is     2093.9 secs

     total energy              =    -584.00683516 Ry
     estimated scf accuracy    <       0.01479488 Ry

     total magnetization       =     1.00 Bohr mag/cell
     absolute magnetization    =     3.29 Bohr mag/cell

     iteration #110     ecut=    58.80 Ry     beta= 0.30
     Davidson diagonalization with overlap
     ethr =  2.68E-06,  avg # of iterations =  1.0

     negative rho (up, down):  2.774E-02 2.466E-02

     total cpu time spent up to now is     2112.0 secs

     total energy              =    -584.00625632 Ry
     estimated scf accuracy    <       0.01491662 Ry

     total magnetization       =     1.00 Bohr mag/cell
     absolute magnetization    =     3.29 Bohr mag/cell

     iteration #111     ecut=    58.80 Ry     beta= 0.30
     Davidson diagonalization with overlap
     ethr =  2.68E-06,  avg # of iterations =  1.0

     negative rho (up, down):  2.775E-02 2.465E-02

     total cpu time spent up to now is     2130.1 secs

     total energy              =    -584.00615742 Ry
     estimated scf accuracy    <       0.01358544 Ry

     total magnetization       =     1.00 Bohr mag/cell
     absolute magnetization    =     3.29 Bohr mag/cell

     iteration #112     ecut=    58.80 Ry     beta= 0.30
     Davidson diagonalization with overlap
     ethr =  2.68E-06,  avg # of iterations =  3.5

     negative rho (up, down):  2.774E-02 2.466E-02

     total cpu time spent up to now is     2148.9 secs

     total energy              =    -584.00630083 Ry
     estimated scf accuracy    <       0.00599464 Ry

     total magnetization       =     1.00 Bohr mag/cell
     absolute magnetization    =     3.28 Bohr mag/cell

     iteration #113     ecut=    58.80 Ry     beta= 0.30
     Davidson diagonalization with overlap
     ethr =  2.68E-06,  avg # of iterations =  3.5

     negative rho (up, down):  2.774E-02 2.466E-02

     total cpu time spent up to now is     2167.6 secs

     total energy              =    -584.00633374 Ry
     estimated scf accuracy    <       0.00621250 Ry

     total magnetization       =     1.00 Bohr mag/cell
     absolute magnetization    =     3.29 Bohr mag/cell

     iteration #114     ecut=    58.80 Ry     beta= 0.30
     Davidson diagonalization with overlap
     ethr =  2.68E-06,  avg # of iterations =  1.0

     negative rho (up, down):  2.774E-02 2.466E-02

     total cpu time spent up to now is     2185.6 secs

     total energy              =    -584.00640661 Ry
     estimated scf accuracy    <       0.00590374 Ry

     total magnetization       =     1.00 Bohr mag/cell
     absolute magnetization    =     3.29 Bohr mag/cell

     iteration #115     ecut=    58.80 Ry     beta= 0.30
     Davidson diagonalization with overlap
     ethr =  2.68E-06,  avg # of iterations =  4.0

     negative rho (up, down):  2.774E-02 2.466E-02

     total cpu time spent up to now is     2204.4 secs

     total energy              =    -584.00656470 Ry
     estimated scf accuracy    <       0.00751950 Ry

     total magnetization       =     1.00 Bohr mag/cell
     absolute magnetization    =     3.29 Bohr mag/cell

     iteration #116     ecut=    58.80 Ry     beta= 0.30
     Davidson diagonalization with overlap
     ethr =  2.68E-06,  avg # of iterations =  1.0

     negative rho (up, down):  2.774E-02 2.466E-02

     total cpu time spent up to now is     2222.4 secs

     total energy              =    -584.00655896 Ry
     estimated scf accuracy    <       0.00758871 Ry

     total magnetization       =     1.00 Bohr mag/cell
     absolute magnetization    =     3.29 Bohr mag/cell

     iteration #117     ecut=    58.80 Ry     beta= 0.30
     Davidson diagonalization with overlap
     ethr =  2.68E-06,  avg # of iterations =  1.0

     negative rho (up, down):  2.773E-02 2.466E-02

     total cpu time spent up to now is     2240.4 secs

     total energy              =    -584.00645691 Ry
     estimated scf accuracy    <       0.00758701 Ry

     total magnetization       =     1.00 Bohr mag/cell
     absolute magnetization    =     3.29 Bohr mag/cell

     iteration #118     ecut=    58.80 Ry     beta= 0.30
     Davidson diagonalization with overlap
     ethr =  2.68E-06,  avg # of iterations =  3.5

     negative rho (up, down):  2.773E-02 2.466E-02

     total cpu time spent up to now is     2259.1 secs

     total energy              =    -584.00658751 Ry
     estimated scf accuracy    <       0.00825764 Ry

     total magnetization       =     1.00 Bohr mag/cell
     absolute magnetization    =     3.29 Bohr mag/cell

     iteration #119     ecut=    58.80 Ry     beta= 0.30
     Davidson diagonalization with overlap
     ethr =  2.68E-06,  avg # of iterations =  1.0

     negative rho (up, down):  2.773E-02 2.466E-02

     total cpu time spent up to now is     2277.1 secs

     total energy              =    -584.00645288 Ry
     estimated scf accuracy    <       0.00829959 Ry

     total magnetization       =     1.00 Bohr mag/cell
     absolute magnetization    =     3.29 Bohr mag/cell

     iteration #120     ecut=    58.80 Ry     beta= 0.30
     Davidson diagonalization with overlap
     ethr =  2.68E-06,  avg # of iterations =  1.0

     negative rho (up, down):  2.774E-02 2.466E-02

     total cpu time spent up to now is     2295.2 secs

     total energy              =    -584.00626150 Ry
     estimated scf accuracy    <       0.00781335 Ry

     total magnetization       =     1.00 Bohr mag/cell
     absolute magnetization    =     3.29 Bohr mag/cell

     iteration #121     ecut=    58.80 Ry     beta= 0.30
     Davidson diagonalization with overlap
     ethr =  2.68E-06,  avg # of iterations =  5.0

     negative rho (up, down):  2.774E-02 2.466E-02

     total cpu time spent up to now is     2314.2 secs

     total energy              =    -584.00578250 Ry
     estimated scf accuracy    <       0.01012005 Ry

     total magnetization       =     1.00 Bohr mag/cell
     absolute magnetization    =     3.29 Bohr mag/cell

     iteration #122     ecut=    58.80 Ry     beta= 0.30
     Davidson diagonalization with overlap
     ethr =  2.68E-06,  avg # of iterations =  4.0

     negative rho (up, down):  2.774E-02 2.465E-02

     total cpu time spent up to now is     2333.2 secs

     total energy              =    -584.00642044 Ry
     estimated scf accuracy    <       0.00467241 Ry

     total magnetization       =     1.00 Bohr mag/cell
     absolute magnetization    =     3.29 Bohr mag/cell

     iteration #123     ecut=    58.80 Ry     beta= 0.30
     Davidson diagonalization with overlap
     ethr =  2.68E-06,  avg # of iterations =  1.5

     negative rho (up, down):  2.775E-02 2.465E-02

     total cpu time spent up to now is     2351.4 secs

     total energy              =    -584.00633337 Ry
     estimated scf accuracy    <       0.00464601 Ry

     total magnetization       =     1.00 Bohr mag/cell
     absolute magnetization    =     3.29 Bohr mag/cell

     iteration #124     ecut=    58.80 Ry     beta= 0.30
     Davidson diagonalization with overlap
     ethr =  2.68E-06,  avg # of iterations =  3.5

     negative rho (up, down):  2.774E-02 2.466E-02

     total cpu time spent up to now is     2370.1 secs

     total energy              =    -584.00619645 Ry
     estimated scf accuracy    <       0.00466439 Ry

     total magnetization       =     1.00 Bohr mag/cell
     absolute magnetization    =     3.28 Bohr mag/cell

     iteration #125     ecut=    58.80 Ry     beta= 0.30
     Davidson diagonalization with overlap
     ethr =  2.68E-06,  avg # of iterations =  4.0

     negative rho (up, down):  2.774E-02 2.466E-02

     total cpu time spent up to now is     2388.8 secs

     total energy              =    -584.00645202 Ry
     estimated scf accuracy    <       0.00401186 Ry

     total magnetization       =     1.00 Bohr mag/cell
     absolute magnetization    =     3.29 Bohr mag/cell

     iteration #126     ecut=    58.80 Ry     beta= 0.30
     Davidson diagonalization with overlap
     ethr =  2.68E-06,  avg # of iterations =  1.0

     negative rho (up, down):  2.774E-02 2.466E-02

     total cpu time spent up to now is     2406.9 secs

     total energy              =    -584.00643455 Ry
     estimated scf accuracy    <       0.00402724 Ry

     total magnetization       =     1.00 Bohr mag/cell
     absolute magnetization    =     3.29 Bohr mag/cell

     iteration #127     ecut=    58.80 Ry     beta= 0.30
     Davidson diagonalization with overlap
     ethr =  2.68E-06,  avg # of iterations =  1.0

     negative rho (up, down):  2.774E-02 2.466E-02

     total cpu time spent up to now is     2424.9 secs

     total energy              =    -584.00634821 Ry
     estimated scf accuracy    <       0.00399620 Ry

     total magnetization       =     1.00 Bohr mag/cell
     absolute magnetization    =     3.29 Bohr mag/cell

     iteration #128     ecut=    58.80 Ry     beta= 0.30
     Davidson diagonalization with overlap
     ethr =  2.68E-06,  avg # of iterations =  1.0

     negative rho (up, down):  2.774E-02 2.466E-02

     total cpu time spent up to now is     2443.0 secs

     total energy              =    -584.00633727 Ry
     estimated scf accuracy    <       0.00383295 Ry

     total magnetization       =     1.00 Bohr mag/cell
     absolute magnetization    =     3.29 Bohr mag/cell

     iteration #129     ecut=    58.80 Ry     beta= 0.30
     Davidson diagonalization with overlap
     ethr =  2.68E-06,  avg # of iterations =  1.0

     negative rho (up, down):  2.774E-02 2.466E-02

     total cpu time spent up to now is     2461.1 secs

     total energy              =    -584.00628331 Ry
     estimated scf accuracy    <       0.00374193 Ry

     total magnetization       =     1.00 Bohr mag/cell
     absolute magnetization    =     3.29 Bohr mag/cell

     iteration #130     ecut=    58.80 Ry     beta= 0.30
     Davidson diagonalization with overlap
     ethr =  2.68E-06,  avg # of iterations =  4.0

     negative rho (up, down):  2.774E-02 2.466E-02

     total cpu time spent up to now is     2479.8 secs

     total energy              =    -584.00641554 Ry
     estimated scf accuracy    <       0.00361280 Ry

     total magnetization       =     1.00 Bohr mag/cell
     absolute magnetization    =     3.29 Bohr mag/cell

     iteration #131     ecut=    58.80 Ry     beta= 0.30
     Davidson diagonalization with overlap
     ethr =  2.68E-06,  avg # of iterations =  1.0

     negative rho (up, down):  2.774E-02 2.466E-02

     total cpu time spent up to now is     2497.8 secs

     total energy              =    -584.00642821 Ry
     estimated scf accuracy    <       0.00360706 Ry

     total magnetization       =     1.00 Bohr mag/cell
     absolute magnetization    =     3.29 Bohr mag/cell

     iteration #132     ecut=    58.80 Ry     beta= 0.30
     Davidson diagonalization with overlap
     ethr =  2.68E-06,  avg # of iterations =  1.0

     negative rho (up, down):  2.773E-02 2.466E-02

     total cpu time spent up to now is     2515.8 secs

     total energy              =    -584.00697771 Ry
     estimated scf accuracy    <       0.00361838 Ry

     total magnetization       =     1.00 Bohr mag/cell
     absolute magnetization    =     3.29 Bohr mag/cell

     iteration #133     ecut=    58.80 Ry     beta= 0.30
     Davidson diagonalization with overlap
     ethr =  2.68E-06,  avg # of iterations =  4.5

     negative rho (up, down):  2.771E-02 2.467E-02

     total cpu time spent up to now is     2535.2 secs

     total energy              =    -584.00076119 Ry
     estimated scf accuracy    <       0.08888418 Ry

     total magnetization       =     1.00 Bohr mag/cell
     absolute magnetization    =     3.32 Bohr mag/cell

     iteration #134     ecut=    58.80 Ry     beta= 0.30
     Davidson diagonalization with overlap
     ethr =  2.68E-06,  avg # of iterations =  5.5

     negative rho (up, down):  2.773E-02 2.466E-02

     total cpu time spent up to now is     2556.5 secs

     total energy              =    -584.00683760 Ry
     estimated scf accuracy    <       0.02619511 Ry

     total magnetization       =     1.00 Bohr mag/cell
     absolute magnetization    =     3.30 Bohr mag/cell

     iteration #135     ecut=    58.80 Ry     beta= 0.30
     Davidson diagonalization with overlap
     ethr =  2.68E-06,  avg # of iterations =  4.5

     negative rho (up, down):  2.773E-02 2.466E-02

     total cpu time spent up to now is     2575.7 secs

     total energy              =    -584.00680310 Ry
     estimated scf accuracy    <       0.02379045 Ry

     total magnetization       =     1.00 Bohr mag/cell
     absolute magnetization    =     3.29 Bohr mag/cell

     iteration #136     ecut=    58.80 Ry     beta= 0.30
     Davidson diagonalization with overlap
     ethr =  2.68E-06,  avg # of iterations =  1.0

     negative rho (up, down):  2.773E-02 2.466E-02

     total cpu time spent up to now is     2593.8 secs

     total energy              =    -584.00651408 Ry
     estimated scf accuracy    <       0.02347814 Ry

     total magnetization       =     1.00 Bohr mag/cell
     absolute magnetization    =     3.29 Bohr mag/cell

     iteration #137     ecut=    58.80 Ry     beta= 0.30
     Davidson diagonalization with overlap
     ethr =  2.68E-06,  avg # of iterations =  1.5

     negative rho (up, down):  2.774E-02 2.465E-02

     total cpu time spent up to now is     2612.2 secs

     total energy              =    -584.00651725 Ry
     estimated scf accuracy    <       0.02240490 Ry

     total magnetization       =     1.00 Bohr mag/cell
     absolute magnetization    =     3.29 Bohr mag/cell

     iteration #138     ecut=    58.80 Ry     beta= 0.30
     Davidson diagonalization with overlap
     ethr =  2.68E-06,  avg # of iterations =  4.5

     negative rho (up, down):  2.773E-02 2.465E-02

     total cpu time spent up to now is     2631.1 secs

     total energy              =    -584.00674369 Ry
     estimated scf accuracy    <       0.01120003 Ry

     total magnetization       =     1.00 Bohr mag/cell
     absolute magnetization    =     3.29 Bohr mag/cell

     iteration #139     ecut=    58.80 Ry     beta= 0.30
     Davidson diagonalization with overlap
     ethr =  2.68E-06,  avg # of iterations =  1.0

     negative rho (up, down):  2.774E-02 2.465E-02

     total cpu time spent up to now is     2649.1 secs

     total energy              =    -584.00644215 Ry
     estimated scf accuracy    <       0.01126234 Ry

     total magnetization       =     1.00 Bohr mag/cell
     absolute magnetization    =     3.29 Bohr mag/cell

     iteration #140     ecut=    58.80 Ry     beta= 0.30
     Davidson diagonalization with overlap
     ethr =  2.68E-06,  avg # of iterations =  1.0

     negative rho (up, down):  2.774E-02 2.465E-02

     total cpu time spent up to now is     2667.2 secs

     total energy              =    -584.00660563 Ry
     estimated scf accuracy    <       0.01062065 Ry

     total magnetization       =     1.00 Bohr mag/cell
     absolute magnetization    =     3.29 Bohr mag/cell

     iteration #141     ecut=    58.80 Ry     beta= 0.30
     Davidson diagonalization with overlap
     ethr =  2.68E-06,  avg # of iterations =  1.0

     negative rho (up, down):  2.772E-02 2.465E-02

     total cpu time spent up to now is     2685.3 secs

     total energy              =    -584.00737587 Ry
     estimated scf accuracy    <       0.01083642 Ry

     total magnetization       =     1.00 Bohr mag/cell
     absolute magnetization    =     3.29 Bohr mag/cell

     iteration #142     ecut=    58.80 Ry     beta= 0.30
     Davidson diagonalization with overlap
     ethr =  2.68E-06,  avg # of iterations =  5.5

     negative rho (up, down):  2.773E-02 2.466E-02

     total cpu time spent up to now is     2705.6 secs

     total energy              =    -584.00461958 Ry
     estimated scf accuracy    <       0.06548056 Ry

     total magnetization       =     1.00 Bohr mag/cell
     absolute magnetization    =     3.32 Bohr mag/cell

     iteration #143     ecut=    58.80 Ry     beta= 0.30
     Davidson diagonalization with overlap
     ethr =  2.68E-06,  avg # of iterations =  6.0

     negative rho (up, down):  2.774E-02 2.465E-02

     total cpu time spent up to now is     2726.1 secs

     total energy              =    -584.00624838 Ry
     estimated scf accuracy    <       0.00963010 Ry

     total magnetization       =     1.00 Bohr mag/cell
     absolute magnetization    =     3.28 Bohr mag/cell

     iteration #144     ecut=    58.80 Ry     beta= 0.30
     Davidson diagonalization with overlap
     ethr =  2.68E-06,  avg # of iterations =  4.5

     negative rho (up, down):  2.774E-02 2.466E-02

     total cpu time spent up to now is     2745.1 secs

     total energy              =    -584.00708289 Ry
     estimated scf accuracy    <       0.01942387 Ry

     total magnetization       =     1.00 Bohr mag/cell
     absolute magnetization    =     3.29 Bohr mag/cell

     iteration #145     ecut=    58.80 Ry     beta= 0.30
     Davidson diagonalization with overlap
     ethr =  2.68E-06,  avg # of iterations =  1.5

     negative rho (up, down):  2.774E-02 2.466E-02

     total cpu time spent up to now is     2763.2 secs

     total energy              =    -584.00752940 Ry
     estimated scf accuracy    <       0.02007261 Ry

     total magnetization       =     1.00 Bohr mag/cell
     absolute magnetization    =     3.29 Bohr mag/cell

     iteration #146     ecut=    58.80 Ry     beta= 0.30
     Davidson diagonalization with overlap
     ethr =  2.68E-06,  avg # of iterations =  1.0

     negative rho (up, down):  2.773E-02 2.466E-02

     total cpu time spent up to now is     2781.2 secs

     total energy              =    -584.00696078 Ry
     estimated scf accuracy    <       0.02107272 Ry

     total magnetization       =     1.00 Bohr mag/cell
     absolute magnetization    =     3.29 Bohr mag/cell

     iteration #147     ecut=    58.80 Ry     beta= 0.30
     Davidson diagonalization with overlap
     ethr =  2.68E-06,  avg # of iterations =  3.5

     negative rho (up, down):  2.774E-02 2.466E-02

     total cpu time spent up to now is     2799.9 secs

     total energy              =    -584.00662828 Ry
     estimated scf accuracy    <       0.02227257 Ry

     total magnetization       =     1.00 Bohr mag/cell
     absolute magnetization    =     3.29 Bohr mag/cell

     iteration #148     ecut=    58.80 Ry     beta= 0.30
     Davidson diagonalization with overlap
     ethr =  2.68E-06,  avg # of iterations =  4.0

     negative rho (up, down):  2.774E-02 2.465E-02

     total cpu time spent up to now is     2818.6 secs

     total energy              =    -584.00655691 Ry
     estimated scf accuracy    <       0.01499309 Ry

     total magnetization       =     1.00 Bohr mag/cell
     absolute magnetization    =     3.29 Bohr mag/cell

     iteration #149     ecut=    58.80 Ry     beta= 0.30
     Davidson diagonalization with overlap
     ethr =  2.68E-06,  avg # of iterations =  2.0

     negative rho (up, down):  2.774E-02 2.465E-02

     total cpu time spent up to now is     2837.2 secs

     total energy              =    -584.00666949 Ry
     estimated scf accuracy    <       0.01461272 Ry

     total magnetization       =     1.00 Bohr mag/cell
     absolute magnetization    =     3.29 Bohr mag/cell

     iteration #150     ecut=    58.80 Ry     beta= 0.30
     Davidson diagonalization with overlap
     ethr =  2.68E-06,  avg # of iterations =  4.0

     negative rho (up, down):  2.775E-02 2.465E-02

     total cpu time spent up to now is     2856.0 secs

     total energy              =    -584.00655370 Ry
     estimated scf accuracy    <       0.01605159 Ry

     total magnetization       =     1.00 Bohr mag/cell
     absolute magnetization    =     3.29 Bohr mag/cell

     iteration #151     ecut=    58.80 Ry     beta= 0.30
     Davidson diagonalization with overlap
     ethr =  2.68E-06,  avg # of iterations =  5.5

     negative rho (up, down):  2.774E-02 2.465E-02

     total cpu time spent up to now is     2875.2 secs

     total energy              =    -584.00684794 Ry
     estimated scf accuracy    <       0.02009355 Ry

     total magnetization       =     1.00 Bohr mag/cell
     absolute magnetization    =     3.29 Bohr mag/cell

     iteration #152     ecut=    58.80 Ry     beta= 0.30
     Davidson diagonalization with overlap
     ethr =  2.68E-06,  avg # of iterations =  1.0

     negative rho (up, down):  2.774E-02 2.466E-02

     total cpu time spent up to now is     2893.3 secs

     total energy              =    -584.00383115 Ry
     estimated scf accuracy    <       0.01991040 Ry

     total magnetization       =     1.00 Bohr mag/cell
     absolute magnetization    =     3.29 Bohr mag/cell

     iteration #153     ecut=    58.80 Ry     beta= 0.30
     Davidson diagonalization with overlap
     ethr =  2.68E-06,  avg # of iterations =  5.5

     negative rho (up, down):  2.775E-02 2.465E-02

     total cpu time spent up to now is     2913.5 secs

     total energy              =    -584.00434722 Ry
     estimated scf accuracy    <       0.02883884 Ry

     total magnetization       =     1.00 Bohr mag/cell
     absolute magnetization    =     3.29 Bohr mag/cell

     iteration #154     ecut=    58.80 Ry     beta= 0.30
     Davidson diagonalization with overlap
     ethr =  2.68E-06,  avg # of iterations =  5.5

     negative rho (up, down):  2.775E-02 2.465E-02

     total cpu time spent up to now is     2933.5 secs

     total energy              =    -584.00680433 Ry
     estimated scf accuracy    <       0.01330324 Ry

     total magnetization       =     1.00 Bohr mag/cell
     absolute magnetization    =     3.29 Bohr mag/cell

     iteration #155     ecut=    58.80 Ry     beta= 0.30
     Davidson diagonalization with overlap
     ethr =  2.68E-06,  avg # of iterations =  1.0

     negative rho (up, down):  2.775E-02 2.465E-02

     total cpu time spent up to now is     2951.7 secs

     total energy              =    -584.00626228 Ry
     estimated scf accuracy    <       0.01322130 Ry

     total magnetization       =     1.00 Bohr mag/cell
     absolute magnetization    =     3.29 Bohr mag/cell

     iteration #156     ecut=    58.80 Ry     beta= 0.30
     Davidson diagonalization with overlap
     ethr =  2.68E-06,  avg # of iterations =  5.5

     negative rho (up, down):  2.775E-02 2.465E-02

     total cpu time spent up to now is     2970.8 secs

     total energy              =    -584.00649685 Ry
     estimated scf accuracy    <       0.00138990 Ry

     total magnetization       =     1.00 Bohr mag/cell
     absolute magnetization    =     3.28 Bohr mag/cell

     iteration #157     ecut=    58.80 Ry     beta= 0.30
     Davidson diagonalization with overlap
     ethr =  1.90E-06,  avg # of iterations =  5.5

     negative rho (up, down):  2.775E-02 2.465E-02

     total cpu time spent up to now is     2989.9 secs

     total energy              =    -584.00671385 Ry
     estimated scf accuracy    <       0.02413942 Ry

     total magnetization       =     1.00 Bohr mag/cell
     absolute magnetization    =     3.29 Bohr mag/cell

     iteration #158     ecut=    58.80 Ry     beta= 0.30
     Davidson diagonalization with overlap
     ethr =  1.90E-06,  avg # of iterations =  6.0

     negative rho (up, down):  2.775E-02 2.465E-02

     total cpu time spent up to now is     3009.3 secs

     total energy              =    -584.00684534 Ry
     estimated scf accuracy    <       0.01168538 Ry

     total magnetization       =     1.00 Bohr mag/cell
     absolute magnetization    =     3.28 Bohr mag/cell

     iteration #159     ecut=    58.80 Ry     beta= 0.30
     Davidson diagonalization with overlap
     ethr =  1.90E-06,  avg # of iterations =  1.0

     negative rho (up, down):  2.775E-02 2.465E-02

     total cpu time spent up to now is     3027.4 secs

     total energy              =    -584.00658258 Ry
     estimated scf accuracy    <       0.01151643 Ry

     total magnetization       =     1.00 Bohr mag/cell
     absolute magnetization    =     3.28 Bohr mag/cell

     iteration #160     ecut=    58.80 Ry     beta= 0.30
     Davidson diagonalization with overlap
     ethr =  1.90E-06,  avg # of iterations =  4.5

     negative rho (up, down):  2.775E-02 2.465E-02

     total cpu time spent up to now is     3046.2 secs

     total energy              =    -584.00668240 Ry
     estimated scf accuracy    <       0.00574422 Ry

     total magnetization       =     1.00 Bohr mag/cell
     absolute magnetization    =     3.28 Bohr mag/cell

     iteration #161     ecut=    58.80 Ry     beta= 0.30
     Davidson diagonalization with overlap
     ethr =  1.90E-06,  avg # of iterations =  1.0

     negative rho (up, down):  2.775E-02 2.465E-02

     total cpu time spent up to now is     3064.2 secs

     total energy              =    -584.00663561 Ry
     estimated scf accuracy    <       0.00586310 Ry

     total magnetization       =     1.00 Bohr mag/cell
     absolute magnetization    =     3.28 Bohr mag/cell

     iteration #162     ecut=    58.80 Ry     beta= 0.30
     Davidson diagonalization with overlap
     ethr =  1.90E-06,  avg # of iterations =  2.0

     negative rho (up, down):  2.775E-02 2.465E-02

     total cpu time spent up to now is     3082.7 secs

     total energy              =    -584.00724412 Ry
     estimated scf accuracy    <       0.00595653 Ry

     total magnetization       =     1.00 Bohr mag/cell
     absolute magnetization    =     3.28 Bohr mag/cell

     iteration #163     ecut=    58.80 Ry     beta= 0.30
     Davidson diagonalization with overlap
     ethr =  1.90E-06,  avg # of iterations =  4.0

     negative rho (up, down):  2.774E-02 2.465E-02

     total cpu time spent up to now is     3101.5 secs

     total energy              =    -584.00519396 Ry
     estimated scf accuracy    <       0.02694806 Ry

     total magnetization       =     1.00 Bohr mag/cell
     absolute magnetization    =     3.29 Bohr mag/cell

     iteration #164     ecut=    58.80 Ry     beta= 0.30
     Davidson diagonalization with overlap
     ethr =  1.90E-06,  avg # of iterations =  5.5

     negative rho (up, down):  2.774E-02 2.465E-02

     total cpu time spent up to now is     3121.0 secs

     total energy              =    -584.00646838 Ry
     estimated scf accuracy    <       0.00030193 Ry

     total magnetization       =     1.00 Bohr mag/cell
     absolute magnetization    =     3.28 Bohr mag/cell

     iteration #165     ecut=    58.80 Ry     beta= 0.30
     Davidson diagonalization with overlap
     ethr =  4.14E-07,  avg # of iterations =  5.0

     negative rho (up, down):  2.774E-02 2.465E-02

     total cpu time spent up to now is     3140.3 secs

     total energy              =    -584.00649564 Ry
     estimated scf accuracy    <       0.00268388 Ry

     total magnetization       =     1.00 Bohr mag/cell
     absolute magnetization    =     3.28 Bohr mag/cell

     iteration #166     ecut=    58.80 Ry     beta= 0.30
     Davidson diagonalization with overlap
     ethr =  4.14E-07,  avg # of iterations =  2.0

     negative rho (up, down):  2.774E-02 2.465E-02

     total cpu time spent up to now is     3158.6 secs

     total energy              =    -584.00657598 Ry
     estimated scf accuracy    <       0.00264705 Ry

     total magnetization       =     1.00 Bohr mag/cell
     absolute magnetization    =     3.28 Bohr mag/cell

     iteration #167     ecut=    58.80 Ry     beta= 0.30
     Davidson diagonalization with overlap
     ethr =  4.14E-07,  avg # of iterations =  1.0

     negative rho (up, down):  2.774E-02 2.465E-02

     total cpu time spent up to now is     3176.6 secs

     total energy              =    -584.00645068 Ry
     estimated scf accuracy    <       0.00280428 Ry

     total magnetization       =     1.00 Bohr mag/cell
     absolute magnetization    =     3.28 Bohr mag/cell

     iteration #168     ecut=    58.80 Ry     beta= 0.30
     Davidson diagonalization with overlap
     ethr =  4.14E-07,  avg # of iterations =  4.0

     negative rho (up, down):  2.774E-02 2.465E-02

     total cpu time spent up to now is     3195.5 secs

     total energy              =    -584.00636918 Ry
     estimated scf accuracy    <       0.00060129 Ry

     total magnetization       =     1.00 Bohr mag/cell
     absolute magnetization    =     3.28 Bohr mag/cell

     iteration #169     ecut=    58.80 Ry     beta= 0.30
     Davidson diagonalization with overlap
     ethr =  4.14E-07,  avg # of iterations =  5.5

     negative rho (up, down):  2.774E-02 2.465E-02

     total cpu time spent up to now is     3215.1 secs

     total energy              =    -584.00646187 Ry
     estimated scf accuracy    <       0.00851891 Ry

     total magnetization       =     1.00 Bohr mag/cell
     absolute magnetization    =     3.28 Bohr mag/cell

     iteration #170     ecut=    58.80 Ry     beta= 0.30
     Davidson diagonalization with overlap
     ethr =  4.14E-07,  avg # of iterations =  5.5

     negative rho (up, down):  2.774E-02 2.465E-02

     total cpu time spent up to now is     3235.2 secs

     total energy              =    -584.00649458 Ry
     estimated scf accuracy    <       0.00312206 Ry

     total magnetization       =     1.00 Bohr mag/cell
     absolute magnetization    =     3.28 Bohr mag/cell

     iteration #171     ecut=    58.80 Ry     beta= 0.30
     Davidson diagonalization with overlap
     ethr =  4.14E-07,  avg # of iterations =  5.5

     negative rho (up, down):  2.774E-02 2.465E-02

     total cpu time spent up to now is     3254.6 secs

     total energy              =    -584.00656003 Ry
     estimated scf accuracy    <       0.00060332 Ry

     total magnetization       =     1.00 Bohr mag/cell
     absolute magnetization    =     3.28 Bohr mag/cell

     iteration #172     ecut=    58.80 Ry     beta= 0.30
     Davidson diagonalization with overlap
     ethr =  4.14E-07,  avg # of iterations =  3.0

     negative rho (up, down):  2.774E-02 2.465E-02

     total cpu time spent up to now is     3273.2 secs

     total energy              =    -584.00651338 Ry
     estimated scf accuracy    <       0.00061309 Ry

     total magnetization       =     1.00 Bohr mag/cell
     absolute magnetization    =     3.28 Bohr mag/cell

     iteration #173     ecut=    58.80 Ry     beta= 0.30
     Davidson diagonalization with overlap
     ethr =  4.14E-07,  avg # of iterations =  5.0

     negative rho (up, down):  2.774E-02 2.465E-02

     total cpu time spent up to now is     3293.3 secs

     total energy              =    -584.00661923 Ry
     estimated scf accuracy    <       0.00059627 Ry

     total magnetization       =     1.00 Bohr mag/cell
     absolute magnetization    =     3.27 Bohr mag/cell

     iteration #174     ecut=    58.80 Ry     beta= 0.30
     Davidson diagonalization with overlap
     ethr =  4.14E-07,  avg # of iterations =  1.0

     negative rho (up, down):  2.774E-02 2.465E-02

     total cpu time spent up to now is     3311.3 secs

     total energy              =    -584.00652775 Ry
     estimated scf accuracy    <       0.00058093 Ry

     total magnetization       =     1.00 Bohr mag/cell
     absolute magnetization    =     3.27 Bohr mag/cell

     iteration #175     ecut=    58.80 Ry     beta= 0.30
     Davidson diagonalization with overlap
     ethr =  4.14E-07,  avg # of iterations =  5.0

     negative rho (up, down):  2.774E-02 2.465E-02

     total cpu time spent up to now is     3330.6 secs

     total energy              =    -584.00653756 Ry
     estimated scf accuracy    <       0.00131028 Ry

     total magnetization       =     1.00 Bohr mag/cell
     absolute magnetization    =     3.28 Bohr mag/cell

     iteration #176     ecut=    58.80 Ry     beta= 0.30
     Davidson diagonalization with overlap
     ethr =  4.14E-07,  avg # of iterations =  5.5

     negative rho (up, down):  2.774E-02 2.465E-02

     total cpu time spent up to now is     3349.9 secs

     total energy              =    -584.00657183 Ry
     estimated scf accuracy    <       0.00002527 Ry

     total magnetization       =     1.00 Bohr mag/cell
     absolute magnetization    =     3.28 Bohr mag/cell

     iteration #177     ecut=    58.80 Ry     beta= 0.30
     Davidson diagonalization with overlap
     ethr =  3.46E-08,  avg # of iterations =  5.0

     negative rho (up, down):  2.774E-02 2.465E-02

     total cpu time spent up to now is     3369.3 secs

     total energy              =    -584.00658104 Ry
     estimated scf accuracy    <       0.00002906 Ry

     total magnetization       =     1.00 Bohr mag/cell
     absolute magnetization    =     3.28 Bohr mag/cell

     iteration #178     ecut=    58.80 Ry     beta= 0.30
     Davidson diagonalization with overlap
     ethr =  3.46E-08,  avg # of iterations =  3.0

     negative rho (up, down):  2.774E-02 2.465E-02

     total cpu time spent up to now is     3388.1 secs

     total energy              =    -584.00659131 Ry
     estimated scf accuracy    <       0.00002892 Ry

     total magnetization       =     1.00 Bohr mag/cell
     absolute magnetization    =     3.28 Bohr mag/cell

     iteration #179     ecut=    58.80 Ry     beta= 0.30
     Davidson diagonalization with overlap
     ethr =  3.46E-08,  avg # of iterations =  5.5

     negative rho (up, down):  2.774E-02 2.465E-02

     total cpu time spent up to now is     3409.2 secs

     total energy              =    -584.00661119 Ry
     estimated scf accuracy    <       0.00018485 Ry

     total magnetization       =     1.00 Bohr mag/cell
     absolute magnetization    =     3.27 Bohr mag/cell

     iteration #180     ecut=    58.80 Ry     beta= 0.30
     Davidson diagonalization with overlap
     ethr =  3.46E-08,  avg # of iterations =  2.0

     negative rho (up, down):  2.774E-02 2.465E-02

     total cpu time spent up to now is     3427.8 secs

     total energy              =    -584.00659504 Ry
     estimated scf accuracy    <       0.00017568 Ry

     total magnetization       =     1.00 Bohr mag/cell
     absolute magnetization    =     3.27 Bohr mag/cell

     iteration #181     ecut=    58.80 Ry     beta= 0.30
     Davidson diagonalization with overlap
     ethr =  3.46E-08,  avg # of iterations =  6.0

     negative rho (up, down):  2.774E-02 2.465E-02

     total cpu time spent up to now is     3447.9 secs

     total energy              =    -584.00660327 Ry
     estimated scf accuracy    <       0.00001970 Ry

     total magnetization       =     1.00 Bohr mag/cell
     absolute magnetization    =     3.27 Bohr mag/cell

     iteration #182     ecut=    58.80 Ry     beta= 0.30
     Davidson diagonalization with overlap
     ethr =  2.70E-08,  avg # of iterations =  1.0

     negative rho (up, down):  2.774E-02 2.466E-02

     total cpu time spent up to now is     3465.9 secs

     total energy              =    -584.00658740 Ry
     estimated scf accuracy    <       0.00002059 Ry

     total magnetization       =     1.00 Bohr mag/cell
     absolute magnetization    =     3.27 Bohr mag/cell

     iteration #183     ecut=    58.80 Ry     beta= 0.30
     Davidson diagonalization with overlap
     ethr =  2.70E-08,  avg # of iterations =  6.0

     negative rho (up, down):  2.774E-02 2.465E-02

     total cpu time spent up to now is     3488.5 secs

     total energy              =    -584.00657540 Ry
     estimated scf accuracy    <       0.00004495 Ry

     total magnetization       =     1.00 Bohr mag/cell
     absolute magnetization    =     3.27 Bohr mag/cell

     iteration #184     ecut=    58.80 Ry     beta= 0.30
     Davidson diagonalization with overlap
     ethr =  2.70E-08,  avg # of iterations =  5.5

     negative rho (up, down):  2.774E-02 2.465E-02

     total cpu time spent up to now is     3510.6 secs

     total energy              =    -584.00661994 Ry
     estimated scf accuracy    <       0.00004404 Ry

     total magnetization       =     1.00 Bohr mag/cell
     absolute magnetization    =     3.27 Bohr mag/cell

     iteration #185     ecut=    58.80 Ry     beta= 0.30
     Davidson diagonalization with overlap
     ethr =  2.70E-08,  avg # of iterations =  4.0

     negative rho (up, down):  2.774E-02 2.465E-02

     total cpu time spent up to now is     3530.5 secs

     total energy              =    -584.00657389 Ry
     estimated scf accuracy    <       0.00004883 Ry

     total magnetization       =     1.00 Bohr mag/cell
     absolute magnetization    =     3.27 Bohr mag/cell

     iteration #186     ecut=    58.80 Ry     beta= 0.30
     Davidson diagonalization with overlap
     ethr =  2.70E-08,  avg # of iterations =  6.0

     negative rho (up, down):  2.774E-02 2.465E-02

     total cpu time spent up to now is     3554.3 secs

     total energy              =    -584.00634595 Ry
     estimated scf accuracy    <       0.00040833 Ry

     total magnetization       =     1.00 Bohr mag/cell
     absolute magnetization    =     3.27 Bohr mag/cell

     iteration #187     ecut=    58.80 Ry     beta= 0.30
     Davidson diagonalization with overlap
     ethr =  2.70E-08,  avg # of iterations =  5.5

     negative rho (up, down):  2.774E-02 2.465E-02

     total cpu time spent up to now is     3580.0 secs

     total energy              =    -584.00676939 Ry
     estimated scf accuracy    <       0.00040945 Ry

     total magnetization       =     1.00 Bohr mag/cell
     absolute magnetization    =     3.27 Bohr mag/cell

     iteration #188     ecut=    58.80 Ry     beta= 0.30
     Davidson diagonalization with overlap
     ethr =  2.70E-08,  avg # of iterations =  3.0

     negative rho (up, down):  2.773E-02 2.466E-02

     total cpu time spent up to now is     3598.8 secs

     total energy              =    -584.00670326 Ry
     estimated scf accuracy    <       0.00041137 Ry

     total magnetization       =     1.00 Bohr mag/cell
     absolute magnetization    =     3.27 Bohr mag/cell

     iteration #189     ecut=    58.80 Ry     beta= 0.30
     Davidson diagonalization with overlap
     ethr =  2.70E-08,  avg # of iterations =  5.5

     negative rho (up, down):  2.773E-02 2.465E-02

     total cpu time spent up to now is     3622.1 secs

     total energy              =    -584.00680221 Ry
     estimated scf accuracy    <       0.00064270 Ry

     total magnetization       =     1.00 Bohr mag/cell
     absolute magnetization    =     3.27 Bohr mag/cell

     iteration #190     ecut=    58.80 Ry     beta= 0.30
     Davidson diagonalization with overlap
     ethr =  2.70E-08,  avg # of iterations =  5.5

     negative rho (up, down):  2.773E-02 2.465E-02

     total cpu time spent up to now is     3643.6 secs

     total energy              =    -584.00679065 Ry
     estimated scf accuracy    <       0.00066251 Ry

     total magnetization       =     1.00 Bohr mag/cell
     absolute magnetization    =     3.27 Bohr mag/cell

     iteration #191     ecut=    58.80 Ry     beta= 0.30
     Davidson diagonalization with overlap
     ethr =  2.70E-08,  avg # of iterations =  7.5

     negative rho (up, down):  2.773E-02 2.465E-02

     total cpu time spent up to now is     3665.4 secs

     total energy              =    -584.00668935 Ry
     estimated scf accuracy    <       0.00022069 Ry

     total magnetization       =     1.00 Bohr mag/cell
     absolute magnetization    =     3.27 Bohr mag/cell

     iteration #192     ecut=    58.80 Ry     beta= 0.30
     Davidson diagonalization with overlap
     ethr =  2.70E-08,  avg # of iterations =  7.5

     negative rho (up, down):  2.773E-02 2.465E-02

     total cpu time spent up to now is     3688.8 secs

     total energy              =    -584.00678334 Ry
     estimated scf accuracy    <       0.00004268 Ry

     total magnetization       =     1.00 Bohr mag/cell
     absolute magnetization    =     3.27 Bohr mag/cell

     iteration #193     ecut=    58.80 Ry     beta= 0.30
     Davidson diagonalization with overlap
     ethr =  2.70E-08,  avg # of iterations =  5.0

     negative rho (up, down):  2.773E-02 2.466E-02

     total cpu time spent up to now is     3711.0 secs

     total energy              =    -584.00673292 Ry
     estimated scf accuracy    <       0.00000796 Ry

     total magnetization       =     1.00 Bohr mag/cell
     absolute magnetization    =     3.27 Bohr mag/cell

     iteration #194     ecut=    58.80 Ry     beta= 0.30
     Davidson diagonalization with overlap
     ethr =  1.09E-08,  avg # of iterations =  5.0

     negative rho (up, down):  2.772E-02 2.466E-02

     total cpu time spent up to now is     3735.7 secs

     total energy              =    -584.00665579 Ry
     estimated scf accuracy    <       0.00000537 Ry

     total magnetization       =     1.00 Bohr mag/cell
     absolute magnetization    =     3.26 Bohr mag/cell

     iteration #195     ecut=    58.80 Ry     beta= 0.30
     Davidson diagonalization with overlap
     ethr =  7.35E-09,  avg # of iterations =  6.5

     negative rho (up, down):  2.772E-02 2.467E-02

     total cpu time spent up to now is     3762.5 secs

     total energy              =    -584.00691006 Ry
     estimated scf accuracy    <       0.00011283 Ry

     total magnetization       =     1.00 Bohr mag/cell
     absolute magnetization    =     3.26 Bohr mag/cell

     iteration #196     ecut=    58.80 Ry     beta= 0.30
     Davidson diagonalization with overlap
     ethr =  7.35E-09,  avg # of iterations =  5.5

     negative rho (up, down):  2.772E-02 2.466E-02

     total cpu time spent up to now is     3786.6 secs

     total energy              =    -584.00690131 Ry
     estimated scf accuracy    <       0.00001372 Ry

     total magnetization       =     1.00 Bohr mag/cell
     absolute magnetization    =     3.26 Bohr mag/cell

     iteration #197     ecut=    58.80 Ry     beta= 0.30
     Davidson diagonalization with overlap
     ethr =  7.35E-09,  avg # of iterations =  6.0

     negative rho (up, down):  2.772E-02 2.466E-02

     total cpu time spent up to now is     3810.9 secs

     total energy              =    -584.00693740 Ry
     estimated scf accuracy    <       0.00002096 Ry

     total magnetization       =     1.00 Bohr mag/cell
     absolute magnetization    =     3.26 Bohr mag/cell

     iteration #198     ecut=    58.80 Ry     beta= 0.30
     Davidson diagonalization with overlap
     ethr =  7.35E-09,  avg # of iterations =  6.0

     negative rho (up, down):  2.772E-02 2.467E-02

     total cpu time spent up to now is     3834.1 secs

     total energy              =    -584.00685515 Ry
     estimated scf accuracy    <       0.00000469 Ry

     total magnetization       =     1.00 Bohr mag/cell
     absolute magnetization    =     3.26 Bohr mag/cell

     iteration #199     ecut=    58.80 Ry     beta= 0.30
     Davidson diagonalization with overlap
     ethr =  6.43E-09,  avg # of iterations =  5.0

     negative rho (up, down):  2.772E-02 2.468E-02

     total cpu time spent up to now is     3859.4 secs

     total energy              =    -584.00665509 Ry
     estimated scf accuracy    <       0.00000443 Ry

     total magnetization       =     1.00 Bohr mag/cell
     absolute magnetization    =     3.26 Bohr mag/cell

     iteration #200     ecut=    58.80 Ry     beta= 0.30
     Davidson diagonalization with overlap
     ethr =  6.07E-09,  avg # of iterations =  5.0

     negative rho (up, down):  2.771E-02 2.467E-02

     total cpu time spent up to now is     3886.2 secs

     total energy              =    -584.00702851 Ry
     estimated scf accuracy    <       0.00000320 Ry

     total magnetization       =     1.00 Bohr mag/cell
     absolute magnetization    =     3.25 Bohr mag/cell

     iteration #201     ecut=    58.80 Ry     beta= 0.30
     Davidson diagonalization with overlap
     ethr =  4.38E-09,  avg # of iterations =  6.0

     negative rho (up, down):  2.771E-02 2.468E-02

     total cpu time spent up to now is     3909.6 secs

     total energy              =    -584.00695426 Ry
     estimated scf accuracy    <       0.00000135 Ry

     total magnetization       =     1.00 Bohr mag/cell
     absolute magnetization    =     3.25 Bohr mag/cell

     iteration #202     ecut=    58.80 Ry     beta= 0.30
     Davidson diagonalization with overlap
     ethr =  1.85E-09,  avg # of iterations =  5.5

     negative rho (up, down):  2.771E-02 2.467E-02

     total cpu time spent up to now is     3936.2 secs

     total energy              =    -584.00702599 Ry
     estimated scf accuracy    <       0.00000127 Ry

     total magnetization       =     1.00 Bohr mag/cell
     absolute magnetization    =     3.25 Bohr mag/cell

     iteration #203     ecut=    58.80 Ry     beta= 0.30
     Davidson diagonalization with overlap
     ethr =  1.74E-09,  avg # of iterations =  6.0

     negative rho (up, down):  2.771E-02 2.467E-02

     total cpu time spent up to now is     3961.9 secs

     total energy              =    -584.00702477 Ry
     estimated scf accuracy    <       0.00000299 Ry

     total magnetization       =     1.00 Bohr mag/cell
     absolute magnetization    =     3.25 Bohr mag/cell

     iteration #204     ecut=    58.80 Ry     beta= 0.30
     Davidson diagonalization with overlap
     ethr =  1.74E-09,  avg # of iterations =  6.0

     negative rho (up, down):  2.771E-02 2.467E-02

     Magnetic moment per site  (integrated on atomic sphere of radius R)
     atom   1 (R=0.029)  charge= 12.9797  magn=  1.6547
     atom   2 (R=0.014)  charge=  1.9421  magn= -0.0345
     atom   3 (R=0.014)  charge=  1.9489  magn= -0.0338
     atom   4 (R=0.014)  charge=  1.9423  magn= -0.0321
     atom   5 (R=0.014)  charge=  0.3880  magn=  0.0016
     atom   6 (R=0.016)  charge=  0.8318  magn= -0.0123
     atom   7 (R=0.014)  charge=  0.3870  magn= -0.0027
     atom   8 (R=0.016)  charge=  0.8317  magn= -0.0113
     atom   9 (R=0.014)  charge=  0.3862  magn=  0.0003
     atom  10 (R=0.016)  charge=  0.8334  magn= -0.0106
     atom  11 (R=0.014)  charge=  0.3853  magn= -0.0107
     atom  12 (R=0.014)  charge=  0.3729  magn= -0.0238
     atom  13 (R=0.016)  charge=  0.8675  magn= -0.0142
     atom  14 (R=0.014)  charge=  0.3675  magn= -0.0218
     atom  15 (R=0.014)  charge=  0.3745  magn= -0.0014
     atom  16 (R=0.014)  charge=  0.3745  magn= -0.0099
     atom  17 (R=0.014)  charge=  0.3832  magn= -0.0130
     atom  18 (R=0.016)  charge=  0.8661  magn= -0.0140
     atom  19 (R=0.014)  charge=  0.3719  magn= -0.0252
     atom  20 (R=0.014)  charge=  0.3680  magn= -0.0205
     atom  21 (R=0.014)  charge=  0.3726  magn= -0.0127
     atom  22 (R=0.014)  charge=  0.3758  magn= -0.0003
     atom  23 (R=0.014)  charge=  0.3833  magn= -0.0124
     atom  24 (R=0.014)  charge=  0.3733  magn= -0.0232
     atom  25 (R=0.016)  charge=  0.8655  magn= -0.0155
     atom  26 (R=0.014)  charge=  0.3727  magn= -0.0160
     atom  27 (R=0.014)  charge=  0.3740  magn= -0.0024
     atom  28 (R=0.014)  charge=  0.3700  magn= -0.0156

     total cpu time spent up to now is     3986.8 secs

     End of self-consistent calculation

     =================== HUBBARD OCCUPATIONS ===================
     ------------------------ ATOM    1 ------------------------
     Tr[ns(  1)] (up, down, total) =   4.12872  2.21214  6.34086
     Atomic magnetic moment for atom   1 =   1.91658
     SPIN  1
     eigenvalues:
       0.224  0.954  0.971  0.989  0.990
     eigenvectors (columns):
       0.344 -0.081 -0.006  0.891  0.285
       0.368  0.695  0.525 -0.166  0.281
       0.412 -0.524  0.610 -0.067 -0.424
      -0.081  0.485 -0.050  0.332 -0.803
       0.755  0.036 -0.592 -0.253 -0.122
     occupation matrix ns (before diag.):
       0.898 -0.095 -0.110  0.022 -0.199
      -0.095  0.864 -0.109  0.011 -0.208
      -0.110 -0.109  0.843  0.035 -0.231
       0.022  0.011  0.035  0.976  0.046
      -0.199 -0.208 -0.231  0.046  0.547
     SPIN  2
     eigenvalues:
       0.032  0.085  0.118  0.987  0.990
     eigenvectors (columns):
      -0.341  0.912  0.137  0.013  0.181
      -0.477 -0.167 -0.543 -0.546  0.389
      -0.460 -0.095  0.399 -0.434 -0.657
      -0.034  0.213 -0.721  0.248 -0.610
       0.666  0.293 -0.081 -0.672 -0.114
     occupation matrix ns (before diag.):
       0.110  0.046 -0.119 -0.101 -0.015
       0.046  0.488 -0.036 -0.325  0.309
      -0.119 -0.036  0.639  0.255  0.346
      -0.101 -0.325  0.255  0.494 -0.085
      -0.015  0.309  0.346 -0.085  0.481

     Number of occupied Hubbard levels =    6.3409

 ------ SPIN UP ------------


          k = 0.0000 0.0000 0.0000 (****** PWs)   bands (ev):

  -102.2690 -68.7393 -68.2415 -68.0411 -34.8223 -34.7495 -34.6990 -26.0694
   -26.0375 -25.9846 -23.1708 -23.1396 -23.0394 -21.2715 -20.9868 -20.7278
   -19.9193 -19.8554 -19.7169 -19.1347 -18.8566 -18.6802 -17.9230 -17.8303
   -17.5776 -17.0184 -16.5704 -16.4139 -16.3848 -15.9488 -15.8394 -15.7134
   -15.6740 -15.6319 -15.4908 -14.6307 -14.5757

 ------ SPIN DOWN ----------


          k = 0.0000 0.0000 0.0000 (****** PWs)   bands (ev):

  -100.1269 -66.8013 -66.4765 -65.4173 -34.9009 -34.8583 -34.7889 -26.1495
   -26.1320 -26.0701 -23.2513 -23.2158 -23.1029 -21.0302 -20.9390 -20.6365
   -19.9105 -19.8395 -19.7577 -19.0702 -19.0186 -18.8657 -17.1922 -16.8608
   -16.6468 -16.3300 -16.2380 -16.0982 -16.0137 -15.8352 -15.7563 -15.6535
   -15.4822 -14.8979 -14.8655 -14.8100 -11.4892

     highest occupied, lowest unoccupied level (ev):   -14.5757  -11.4892

!    total energy              =    -584.00706805 Ry
     total all-electron energy =      -584.007068 Ry
     estimated scf accuracy    <       0.00000054 Ry

     The total energy is the sum of the following terms:
     one-electron contribution =   -1805.27208783 Ry
     hartree contribution      =     865.47792667 Ry
     xc contribution           =     -82.70292805 Ry
     ewald contribution        =     572.81919339 Ry
     Hubbard energy            =       0.07389847 Ry
     one-center paw contrib.   =    -134.40307069 Ry

     total magnetization       =     1.00 Bohr mag/cell
     absolute magnetization    =     3.25 Bohr mag/cell

     convergence has been achieved in 204 iterations

     negative rho (up, down):  2.771E-02 2.467E-02

     Forces acting on atoms (cartesian axes, Ry/au):

     atom    1 type  1   force =     0.00085564   -0.00204687   -0.00166632
     atom    2 type  2   force =     0.00648450    0.00007422    0.00350388
     atom    3 type  2   force =     0.00074285   -0.00144186   -0.00777704
     atom    4 type  2   force =    -0.00379379    0.00524990    0.00495478
     atom    5 type  3   force =    -0.01430690   -0.00312121   -0.01123524
     atom    6 type  4   force =     0.01154112    0.00102960    0.00180881
     atom    7 type  3   force =     0.00069395    0.01189370    0.01489200
     atom    8 type  4   force =     0.00108389    0.00836053    0.00209144
     atom    9 type  3   force =    -0.00223001   -0.01140006   -0.01414321
     atom   10 type  4   force =    -0.00176212   -0.01298263    0.00225078
     atom   11 type  3   force =     0.00740728    0.00047890    0.00233303
     atom   12 type  3   force =    -0.00315436    0.00129476    0.00592548
     atom   13 type  4   force =     0.00031713   -0.00208571   -0.00290869
     atom   14 type  3   force =     0.00298784   -0.00009498   -0.00515627
     atom   15 type  3   force =     0.00050523    0.00832786    0.00247886
     atom   16 type  3   force =    -0.00738236   -0.00020448   -0.00217594
     atom   17 type  3   force =    -0.00354311   -0.00188611   -0.00596227
     atom   18 type  4   force =    -0.00255954    0.00667332    0.00015206
     atom   19 type  3   force =     0.00448262   -0.00285763   -0.00010800
     atom   20 type  3   force =    -0.00480278    0.00207833    0.00006713
     atom   21 type  3   force =     0.00333744    0.00136333    0.00587730
     atom   22 type  3   force =    -0.00221555   -0.00815351    0.00204660
     atom   23 type  3   force =    -0.00015395    0.00106831    0.00736641
     atom   24 type  3   force =     0.00065486    0.00583278   -0.00199796
     atom   25 type  4   force =    -0.00332466   -0.00287215   -0.00122498
     atom   26 type  3   force =    -0.00037180   -0.00543121    0.00258923
     atom   27 type  3   force =     0.00785710    0.00088476    0.00235593
     atom   28 type  3   force =     0.00064947   -0.00003190   -0.00633779

     Total force =     0.049524     Total SCF correction =     0.000513


     Computing stress (Cartesian axis) and pressure


     negative rho (up, down):  2.771E-02 2.467E-02
          total   stress  (Ry/bohr**3)                   (kbar)     P=        0.05
   0.00000023  -0.00000007   0.00000005            0.03       -0.01        0.01
  -0.00000007   0.00000046   0.00000009           -0.01        0.07        0.01
   0.00000005   0.00000009   0.00000036            0.01        0.01        0.05


     Writing all to output data dir ./out/Fe_EtOH_3_LowSpin.save/ :
     XML data file, charge density, pseudopotentials, collected wavefunctions

     init_run     :     28.79s CPU     26.27s WALL (       1 calls)
     electrons    :   4389.74s CPU   3961.11s WALL (       1 calls)
     forces       :    112.40s CPU     92.22s WALL (       1 calls)
     stress       :    369.06s CPU    326.86s WALL (       1 calls)

     Called by init_run:
     wfcinit      :     20.65s CPU     18.07s WALL (       1 calls)
     potinit      :      1.77s CPU      1.87s WALL (       1 calls)
     hinit0       :      1.14s CPU      1.18s WALL (       1 calls)

     Called by electrons:
     c_bands      :   1820.00s CPU   1610.42s WALL (     204 calls)
     sum_band     :   1683.06s CPU   1490.81s WALL (     204 calls)
     v_of_rho     :    204.17s CPU    205.25s WALL (     205 calls)
     newd         :    442.13s CPU    413.17s WALL (     205 calls)
     PAW_pot      :    135.68s CPU    136.14s WALL (     205 calls)
     mix_rho      :    101.42s CPU    101.27s WALL (     204 calls)

     Called by c_bands:
     init_us_2    :     29.91s CPU     30.16s WALL (     828 calls)
     init_us_2:cp :     29.90s CPU     30.15s WALL (     828 calls)
     cegterg      :   1757.71s CPU   1548.94s WALL (     408 calls)

     Called by *egterg:
     cdiaghg      :      7.83s CPU      4.10s WALL (    1729 calls)
     h_psi        :   1491.71s CPU   1402.43s WALL (    1731 calls)
     s_psi        :     91.24s CPU     46.53s WALL (    1741 calls)
     g_psi        :      6.43s CPU      3.81s WALL (    1321 calls)

     Called by h_psi:
     h_psi:calbec :     94.39s CPU     49.78s WALL (    1731 calls)
     vloc_psi     :   1276.97s CPU   1283.89s WALL (    1731 calls)
     add_vuspsi   :     90.73s CPU     45.84s WALL (    1731 calls)
     vhpsi        :     22.38s CPU     11.51s WALL (    1731 calls)

     General routines
     calbec       :    242.67s CPU    127.02s WALL (    9696 calls)
     fft          :    158.07s CPU    159.33s WALL (    4347 calls)
     ffts         :     12.52s CPU     12.74s WALL (     408 calls)
     fftw         :   1219.86s CPU   1228.62s WALL (   86194 calls)

     Parallel routines

     Hubbard U routines
     new_ns       :      8.28s CPU      6.02s WALL (     204 calls)
     vhpsi        :     22.38s CPU     11.51s WALL (    1731 calls)
     force_hub    :    105.13s CPU     86.02s WALL (       1 calls)
                                        0.00s GPU  (       1 calls)
     stres_hub    :    335.13s CPU    293.74s WALL (       1 calls)
                                        0.00s GPU  (       1 calls)

     PWSCF        :      1h21m CPU      1h13m WALL


   This run was terminated on:   7:59:23  11Mar2026            

=------------------------------------------------------------------------------=
   JOB DONE.
=------------------------------------------------------------------------------=
