
     Program PWSCF v.7.3 starts on 11Mar2026 at  6:39:52 

     This program is part of the open-source Quantum ESPRESSO suite
     for quantum simulation of materials; please cite
         "P. Giannozzi et al., J. Phys.:Condens. Matter 21 395502 (2009);
         "P. Giannozzi et al., J. Phys.:Condens. Matter 29 465901 (2017);
         "P. Giannozzi et al., J. Chem. Phys. 152 154105 (2020);
          URL http://www.quantum-espresso.org", 
     in publications or presentations arising from this work. More details at
     http://www.quantum-espresso.org/quote

     Parallel version (MPI), running on    24 processors

     MPI processes distributed on     1 nodes
     96668 MiB available memory on the printing compute node when the environment starts

     Reading input from FeH2O6_LowSpin.in

     Current dimensions of program PWSCF are:
     Max number of different atomic species (ntypx) = 10
     Max number of k-points (npk) =  40000
     Max angular momentum in pseudopotentials (lmaxx) =  4
read_pp_mesh; mismatch in mesh size, discarding the one in header
read_pp_mesh; mismatch in mesh size, discarding the one in header
read_pp_mesh; mismatch in mesh size, discarding the one in header
     file Fe.GGA-PBE-paw.UPF: wavefunction(s)  4S 3P 0P 3D 0D renormalized
     file O.GGA-PBE-paw.UPF: wavefunction(s)  0S 2P 0P renormalized
     file H.GGA-PBE-paw.UPF: wavefunction(s)  0S 0P renormalized
     Message from routine setup:
     the system is metallic, specify occupations

     R & G space division:  proc/nbgrp/npool/nimage =      24
     Subspace diagonalization in iterative solution of the eigenvalue problem:
     a serial algorithm will be used


     Parallelization info
     --------------------
     sticks:   dense  smooth     PW     G-vecs:    dense   smooth      PW
     Min        1647    1647    411               248105   248105   31013
     Max        1648    1648    412               248108   248108   31016
     Sum       39535   39535   9887              5954535  5954535  744371

     Using Slab Decomposition



     bravais-lattice index     =            0
     lattice parameter (alat)  =      45.8499  a.u.
     unit-cell volume          =   97761.0916 (a.u.)^3
     number of atoms/cell      =           19
     number of atomic types    =            3
     number of electrons       =        61.00 (up:  31.00, down:  30.00)
     number of Kohn-Sham states=           31
     kinetic-energy cutoff     =      58.8000  Ry
     charge density cutoff     =     235.2000  Ry
     scf convergence threshold =      1.0E-06
     mixing beta               =       0.3000
     number of iterations used =            8  plain     mixing
     Exchange-correlation= SLA PW PBX PBC
                           (   1   4   3   4   0   0   0)
     Hubbard projectors: ortho-atomic
     Hubbard parameters of DFT+U (Dudarev formulation) in eV:
     U(Fe-3d) =  4.0000

     Internal variables: lda_plus_u =T, lda_plus_u_kind = 0

     celldm(1)=  45.849920  celldm(2)=   0.000000  celldm(3)=   0.000000
     celldm(4)=   0.000000  celldm(5)=   0.000000  celldm(6)=   0.000000

     crystal axes: (cart. coord. in units of alat)
               a(1) = (   1.000000   0.000000   0.000000 )  
               a(2) = (   0.000000   1.004765   0.000000 )  
               a(3) = (   0.000000   0.000000   1.009452 )  

     reciprocal axes: (cart. coord. in units 2 pi/alat)
               b(1) = (  1.000000  0.000000  0.000000 )  
               b(2) = (  0.000000  0.995258  0.000000 )  
               b(3) = (  0.000000  0.000000  0.990636 )  


     PseudoPot. # 1 for Fe read from file:
     /storage/nanosim/JTH_PBE/Fe.GGA-PBE-paw.UPF
     MD5 check sum: 6f5baa53d711f01c620cb678d0da43bc
     Pseudo is Projector augmented-wave + core cor, Zval = 16.0
     Generated using ATOMPAW code
     Shape of augmentation charge: SINC**2
     Using radial grid of 2342 points,  6 beta functions with: 
                l(1) =   0
                l(2) =   0
                l(3) =   1
                l(4) =   1
                l(5) =   2
                l(6) =   2
     Q(r) pseudized with 0 coefficients 


     PseudoPot. # 2 for O  read from file:
     /storage/nanosim/JTH_PBE/O.GGA-PBE-paw.UPF
     MD5 check sum: 736cbc7a9d52a6679d85906802ae4ba1
     Pseudo is Projector augmented-wave + core cor, Zval =  6.0
     Generated using ATOMPAW code
     Shape of augmentation charge: SINC**2
     Using radial grid of 2342 points,  4 beta functions with: 
                l(1) =   0
                l(2) =   0
                l(3) =   1
                l(4) =   1
     Q(r) pseudized with 0 coefficients 


     PseudoPot. # 3 for H  read from file:
     /storage/nanosim/JTH_PBE/H.GGA-PBE-paw.UPF
     MD5 check sum: 038daa4ccd301a845c8516faee96a7c5
     Pseudo is Projector augmented-wave + core cor, Zval =  1.0
     Generated using ATOMPAW code
     Shape of augmentation charge: SINC**2
     Using radial grid of 2342 points,  3 beta functions with: 
                l(1) =   0
                l(2) =   0
                l(3) =   1
     Q(r) pseudized with 0 coefficients 


     atomic species   valence    mass     pseudopotential
     Fe               16.00    55.84500     Fe( 1.00)
     O                 6.00    16.00000     O ( 1.00)
     H                 1.00     1.00800     H ( 1.00)

     Starting magnetic structure 
     atomic species   magnetization
     Fe              0.062
     O               0.000
     H               0.000

     No symmetry found



   Cartesian axes

     site n.     atom                  positions (alat units)
         1        Fe     tau(   1) = (   0.5000018   0.5023931   0.5047251  )
         2        O      tau(   2) = (   0.4472713   0.4935366   0.4455214  )
         3        O      tau(   3) = (   0.5526865   0.5111600   0.5639812  )
         4        O      tau(   4) = (   0.5235609   0.5731713   0.4758525  )
         5        O      tau(   5) = (   0.4763772   0.4316953   0.5336711  )
         6        O      tau(   6) = (   0.4436749   0.5408827   0.5461261  )
         7        O      tau(   7) = (   0.5562080   0.4638772   0.4631468  )
         8        H      tau(   8) = (   0.4425077   0.5805631   0.5517418  )
         9        H      tau(   9) = (   0.5073087   0.5918007   0.4442868  )
        10        H      tau(  10) = (   0.4121547   0.5127138   0.4429352  )
        11        H      tau(  11) = (   0.4431777   0.4121547   0.5225774  )
        12        H      tau(  12) = (   0.5471184   0.5327552   0.5972976  )
        13        H      tau(  13) = (   0.5840493   0.4810958   0.4399990  )
        14        H      tau(  14) = (   0.4926487   0.4129482   0.5651594  )
        15        H      tau(  15) = (   0.4160071   0.5235430   0.5693927  )
        16        H      tau(  16) = (   0.4529941   0.4720591   0.4121547  )
        17        H      tau(  17) = (   0.5575230   0.4241568   0.4578598  )
        18        H      tau(  18) = (   0.5568899   0.5926102   0.4867309  )
        19        H      tau(  19) = (   0.5878453   0.4920468   0.5664601  )

     number of k points=     1
                       cart. coord. in units 2pi/alat
        k(    1) = (   0.0000000   0.0000000   0.0000000), wk =   1.0000000

     Dense  grid:  5954535 G-vectors     FFT dimensions: ( 225, 225, 225)

     Estimated max dynamical RAM per process >       1.17 GB

     Estimated total dynamical RAM >      28.11 GB
     Generating pointlists ...
     new r_m :   0.0329 (alat units)  1.5088 (a.u.) for type    1
     new r_m :   0.0165 (alat units)  0.7582 (a.u.) for type    2
     new r_m :   0.0165 (alat units)  0.7582 (a.u.) for type    3

     Initial potential from superposition of free atoms

     starting charge      63.9992, renormalised to      61.0000

     negative rho (up, down):  2.092E-02 1.940E-02

     STARTING HUBBARD OCCUPATIONS:

     =================== HUBBARD OCCUPATIONS ===================
     ------------------------ ATOM    1 ------------------------
     Tr[ns(  1)] (up, down, total) =   5.00000  2.00000  7.00000
     Atomic magnetic moment for atom   1 =   3.00000
     SPIN  1
     eigenvalues:
       1.000  1.000  1.000  1.000  1.000
     eigenvectors (columns):
       1.000  0.000  0.000  0.000  0.000
       0.000  1.000  0.000  0.000  0.000
       0.000  0.000  1.000  0.000  0.000
       0.000  0.000  0.000  1.000  0.000
       0.000  0.000  0.000  0.000  1.000
     occupation matrix ns (before diag.):
       1.000  0.000  0.000  0.000  0.000
       0.000  1.000  0.000  0.000  0.000
       0.000  0.000  1.000  0.000  0.000
       0.000  0.000  0.000  1.000  0.000
       0.000  0.000  0.000  0.000  1.000
     SPIN  2
     eigenvalues:
       0.400  0.400  0.400  0.400  0.400
     eigenvectors (columns):
       1.000  0.000  0.000  0.000  0.000
       0.000  1.000  0.000  0.000  0.000
       0.000  0.000  1.000  0.000  0.000
       0.000  0.000  0.000  1.000  0.000
       0.000  0.000  0.000  0.000  1.000
     occupation matrix ns (before diag.):
       0.400  0.000  0.000  0.000  0.000
       0.000  0.400  0.000  0.000  0.000
       0.000  0.000  0.400  0.000  0.000
       0.000  0.000  0.000  0.400  0.000
       0.000  0.000  0.000  0.000  0.400

     Number of occupied Hubbard levels =    7.0000

     Atomic wfc used for Hubbard projectors are orthogonalized

     Starting wfcs are  126 randomized atomic wfcs
     Checking if some PAW data can be deallocated... 

     total cpu time spent up to now is       12.6 secs

     Self-consistent Calculation

     iteration #  1     ecut=    58.80 Ry     beta= 0.30
     Davidson diagonalization with overlap
     ethr =  1.00E-02,  avg # of iterations =  2.0

     =================== HUBBARD OCCUPATIONS ===================
     ------------------------ ATOM    1 ------------------------
     Tr[ns(  1)] (up, down, total) =   4.34862  3.38056  7.72918
     Atomic magnetic moment for atom   1 =   0.96807
     SPIN  1
     eigenvalues:
       0.683  0.718  0.982  0.983  0.983
     eigenvectors (columns):
      -0.277  0.215  0.411  0.286  0.791
       0.916  0.091  0.166 -0.208  0.285
       0.040 -0.681 -0.560  0.069  0.465
      -0.229  0.406 -0.373 -0.753  0.276
      -0.172 -0.564  0.592 -0.550 -0.015
     occupation matrix ns (before diag.):
       0.948  0.071  0.042 -0.042  0.018
       0.071  0.729  0.005  0.053  0.061
       0.042  0.005  0.859  0.076 -0.100
      -0.042  0.053  0.076  0.923  0.049
       0.018  0.061 -0.100  0.049  0.890
     SPIN  2
     eigenvalues:
       0.412  0.426  0.580  0.981  0.982
     eigenvectors (columns):
      -0.149 -0.347 -0.921 -0.028 -0.091
      -0.054  0.882 -0.353  0.186  0.247
       0.636 -0.010 -0.125 -0.609  0.456
      -0.524 -0.234  0.091  0.047  0.813
       0.544 -0.219 -0.053  0.769  0.249
     occupation matrix ns (before diag.):
       0.561  0.035  0.006 -0.056 -0.016
       0.035  0.498  0.007  0.111  0.117
       0.006  0.007  0.744  0.193 -0.201
      -0.056  0.111  0.193  0.792  0.136
      -0.016  0.117 -0.201  0.136  0.785

     Number of occupied Hubbard levels =    7.7292

     negative rho (up, down):  2.351E-02 2.181E-02

     total cpu time spent up to now is       23.3 secs

     total energy              =    -590.19917111 Ry
     estimated scf accuracy    <       8.84058405 Ry

     total magnetization       =     1.00 Bohr mag/cell
     absolute magnetization    =     1.84 Bohr mag/cell

     iteration #  2     ecut=    58.80 Ry     beta= 0.30
     Davidson diagonalization with overlap
     ethr =  1.00E-02,  avg # of iterations =  3.5

     negative rho (up, down):  2.416E-02 2.254E-02

     total cpu time spent up to now is       34.2 secs

     total energy              =    -591.20667110 Ry
     estimated scf accuracy    <       2.04768361 Ry

     total magnetization       =     1.00 Bohr mag/cell
     absolute magnetization    =     1.18 Bohr mag/cell

     iteration #  3     ecut=    58.80 Ry     beta= 0.30
     Davidson diagonalization with overlap
     ethr =  3.36E-03,  avg # of iterations =  3.0

     negative rho (up, down):  2.511E-02 2.341E-02

     total cpu time spent up to now is       44.2 secs

     total energy              =    -591.46176000 Ry
     estimated scf accuracy    <       0.33224488 Ry

     total magnetization       =     1.00 Bohr mag/cell
     absolute magnetization    =     1.26 Bohr mag/cell

     iteration #  4     ecut=    58.80 Ry     beta= 0.30
     Davidson diagonalization with overlap
     ethr =  5.45E-04,  avg # of iterations =  3.0

     negative rho (up, down):  2.640E-02 2.460E-02

     total cpu time spent up to now is       54.5 secs

     total energy              =    -591.50861632 Ry
     estimated scf accuracy    <       0.09100677 Ry

     total magnetization       =     1.00 Bohr mag/cell
     absolute magnetization    =     1.22 Bohr mag/cell

     iteration #  5     ecut=    58.80 Ry     beta= 0.30
     Davidson diagonalization with overlap
     ethr =  1.49E-04,  avg # of iterations =  3.0

     negative rho (up, down):  2.784E-02 2.599E-02

     total cpu time spent up to now is       64.5 secs

     total energy              =    -591.51787817 Ry
     estimated scf accuracy    <       0.02520404 Ry

     total magnetization       =     1.00 Bohr mag/cell
     absolute magnetization    =     1.18 Bohr mag/cell

     iteration #  6     ecut=    58.80 Ry     beta= 0.30
     Davidson diagonalization with overlap
     ethr =  4.13E-05,  avg # of iterations =  3.0

     negative rho (up, down):  2.805E-02 2.621E-02

     total cpu time spent up to now is       74.7 secs

     total energy              =    -591.52124170 Ry
     estimated scf accuracy    <       0.00217624 Ry

     total magnetization       =     1.00 Bohr mag/cell
     absolute magnetization    =     1.17 Bohr mag/cell

     iteration #  7     ecut=    58.80 Ry     beta= 0.30
     Davidson diagonalization with overlap
     ethr =  3.57E-06,  avg # of iterations =  3.5

     negative rho (up, down):  2.802E-02 2.621E-02

     total cpu time spent up to now is       86.0 secs

     total energy              =    -591.52195295 Ry
     estimated scf accuracy    <       0.00142263 Ry

     total magnetization       =     1.00 Bohr mag/cell
     absolute magnetization    =     1.16 Bohr mag/cell

     iteration #  8     ecut=    58.80 Ry     beta= 0.30
     Davidson diagonalization with overlap
     ethr =  2.33E-06,  avg # of iterations =  3.5

     negative rho (up, down):  2.813E-02 2.633E-02

     total cpu time spent up to now is       97.2 secs

     total energy              =    -591.52247922 Ry
     estimated scf accuracy    <       0.00064282 Ry

     total magnetization       =     1.00 Bohr mag/cell
     absolute magnetization    =     1.16 Bohr mag/cell

     iteration #  9     ecut=    58.80 Ry     beta= 0.30
     Davidson diagonalization with overlap
     ethr =  1.05E-06,  avg # of iterations =  3.0

     negative rho (up, down):  2.805E-02 2.627E-02

     total cpu time spent up to now is      108.1 secs

     total energy              =    -591.52274752 Ry
     estimated scf accuracy    <       0.00013639 Ry

     total magnetization       =     1.00 Bohr mag/cell
     absolute magnetization    =     1.16 Bohr mag/cell

     iteration # 10     ecut=    58.80 Ry     beta= 0.30
     Davidson diagonalization with overlap
     ethr =  2.24E-07,  avg # of iterations =  4.0

     negative rho (up, down):  2.810E-02 2.632E-02

     total cpu time spent up to now is      119.0 secs

     total energy              =    -591.52287630 Ry
     estimated scf accuracy    <       0.00019737 Ry

     total magnetization       =     1.00 Bohr mag/cell
     absolute magnetization    =     1.16 Bohr mag/cell

     iteration # 11     ecut=    58.80 Ry     beta= 0.30
     Davidson diagonalization with overlap
     ethr =  2.24E-07,  avg # of iterations =  4.0

     negative rho (up, down):  2.809E-02 2.634E-02

     total cpu time spent up to now is      129.7 secs

     total energy              =    -591.52232897 Ry
     estimated scf accuracy    <       0.00008330 Ry

     total magnetization       =     1.00 Bohr mag/cell
     absolute magnetization    =     1.16 Bohr mag/cell

     iteration # 12     ecut=    58.80 Ry     beta= 0.30
     Davidson diagonalization with overlap
     ethr =  1.37E-07,  avg # of iterations =  5.0

     negative rho (up, down):  2.805E-02 2.630E-02

     total cpu time spent up to now is      142.0 secs

     total energy              =    -591.52342128 Ry
     estimated scf accuracy    <       0.00007030 Ry

     total magnetization       =     1.00 Bohr mag/cell
     absolute magnetization    =     1.17 Bohr mag/cell

     iteration # 13     ecut=    58.80 Ry     beta= 0.30
     Davidson diagonalization with overlap
     ethr =  1.15E-07,  avg # of iterations =  5.0

     negative rho (up, down):  2.805E-02 2.632E-02

     total cpu time spent up to now is      153.9 secs

     total energy              =    -591.52334819 Ry
     estimated scf accuracy    <       0.00002751 Ry

     total magnetization       =     1.00 Bohr mag/cell
     absolute magnetization    =     1.18 Bohr mag/cell

     iteration # 14     ecut=    58.80 Ry     beta= 0.30
     Davidson diagonalization with overlap
     ethr =  4.51E-08,  avg # of iterations =  5.0

     negative rho (up, down):  2.807E-02 2.633E-02

     total cpu time spent up to now is      165.6 secs

     total energy              =    -591.52398991 Ry
     estimated scf accuracy    <       0.00001475 Ry

     total magnetization       =     1.00 Bohr mag/cell
     absolute magnetization    =     1.20 Bohr mag/cell

     iteration # 15     ecut=    58.80 Ry     beta= 0.30
     Davidson diagonalization with overlap
     ethr =  2.42E-08,  avg # of iterations =  4.0

     negative rho (up, down):  2.809E-02 2.636E-02

     total cpu time spent up to now is      176.2 secs

     total energy              =    -591.52383532 Ry
     estimated scf accuracy    <       0.00000808 Ry

     total magnetization       =     1.00 Bohr mag/cell
     absolute magnetization    =     1.20 Bohr mag/cell

     iteration # 16     ecut=    58.80 Ry     beta= 0.30
     Davidson diagonalization with overlap
     ethr =  1.32E-08,  avg # of iterations =  5.0

     negative rho (up, down):  2.809E-02 2.636E-02

     total cpu time spent up to now is      188.0 secs

     total energy              =    -591.52404423 Ry
     estimated scf accuracy    <       0.00000499 Ry

     total magnetization       =     1.00 Bohr mag/cell
     absolute magnetization    =     1.21 Bohr mag/cell

     iteration # 17     ecut=    58.80 Ry     beta= 0.30
     Davidson diagonalization with overlap
     ethr =  8.19E-09,  avg # of iterations =  3.5

     negative rho (up, down):  2.808E-02 2.635E-02

     total cpu time spent up to now is      198.4 secs

     total energy              =    -591.52404651 Ry
     estimated scf accuracy    <       0.00000141 Ry

     total magnetization       =     1.00 Bohr mag/cell
     absolute magnetization    =     1.21 Bohr mag/cell

     iteration # 18     ecut=    58.80 Ry     beta= 0.30
     Davidson diagonalization with overlap
     ethr =  2.31E-09,  avg # of iterations =  4.0

     negative rho (up, down):  2.808E-02 2.635E-02

     Magnetic moment per site  (integrated on atomic sphere of radius R)
     atom   1 (R=0.033)  charge= 12.8586  magn=  0.8854
     atom   2 (R=0.017)  charge=  1.9698  magn= -0.0006
     atom   3 (R=0.017)  charge=  1.9694  magn= -0.0006
     atom   4 (R=0.017)  charge=  1.9568  magn= -0.0017
     atom   5 (R=0.017)  charge=  1.9552  magn= -0.0016
     atom   6 (R=0.017)  charge=  1.9552  magn= -0.0010
     atom   7 (R=0.017)  charge=  1.9540  magn= -0.0010
     atom   8 (R=0.017)  charge=  0.3779  magn= -0.0007
     atom   9 (R=0.017)  charge=  0.3790  magn=  0.0000
     atom  10 (R=0.017)  charge=  0.3784  magn= -0.0007
     atom  11 (R=0.017)  charge=  0.3803  magn= -0.0006
     atom  12 (R=0.017)  charge=  0.3773  magn= -0.0001
     atom  13 (R=0.017)  charge=  0.3793  magn=  0.0001
     atom  14 (R=0.017)  charge=  0.3790  magn=  0.0000
     atom  15 (R=0.017)  charge=  0.3792  magn=  0.0001
     atom  16 (R=0.017)  charge=  0.3773  magn= -0.0000
     atom  17 (R=0.017)  charge=  0.3780  magn= -0.0007
     atom  18 (R=0.017)  charge=  0.3804  magn= -0.0006
     atom  19 (R=0.017)  charge=  0.3784  magn= -0.0006

     total cpu time spent up to now is      209.1 secs

     End of self-consistent calculation

     =================== HUBBARD OCCUPATIONS ===================
     ------------------------ ATOM    1 ------------------------
     Tr[ns(  1)] (up, down, total) =   3.56888  2.59786  6.16674
     Atomic magnetic moment for atom   1 =   0.97101
     SPIN  1
     eigenvalues:
       0.305  0.306  0.986  0.986  0.986
     eigenvectors (columns):
       0.354 -0.135  0.920  0.022 -0.099
      -0.475  0.767  0.317  0.165  0.243
      -0.504 -0.376  0.196 -0.645  0.388
       0.540  0.119 -0.101 -0.024  0.827
      -0.323 -0.488  0.069  0.745  0.311
     occupation matrix ns (before diag.):
       0.888  0.184  0.087 -0.119  0.033
       0.184  0.433  0.034  0.112  0.150
       0.087  0.034  0.717  0.215 -0.236
      -0.119  0.112  0.215  0.778  0.158
       0.033  0.150 -0.236  0.158  0.753
     SPIN  2
     eigenvalues:
       0.119  0.253  0.255  0.986  0.986
     eigenvectors (columns):
       0.906 -0.300  0.044  0.150 -0.253
       0.316  0.571 -0.532 -0.538  0.043
       0.276  0.271  0.321  0.200  0.841
      -0.017 -0.709 -0.233 -0.498  0.441
       0.047  0.087  0.747 -0.632 -0.178
     occupation matrix ns (before diag.):
       0.206 -0.106 -0.168 -0.135 -0.042
      -0.106  0.454 -0.064  0.211  0.241
      -0.168 -0.064  0.791  0.199 -0.204
      -0.135  0.211  0.199  0.578  0.173
      -0.042  0.241 -0.204  0.173  0.570

     Number of occupied Hubbard levels =    6.1667

 ------ SPIN UP ------------


          k = 0.0000 0.0000 0.0000 (744371 PWs)   bands (ev):

  -103.8304 -70.3011 -69.6345 -69.5735 -35.6795 -35.3154 -35.3072 -35.2732
   -35.2057 -35.1934 -23.4035 -23.3966 -23.1894 -23.1809 -23.1661 -23.1003
   -22.2644 -21.2590 -21.2309 -20.5520 -20.5359 -20.4349 -20.3230 -19.0629
   -19.0461 -17.5256 -17.3853 -17.3501 -17.0226 -16.7101 -16.7079

 ------ SPIN DOWN ----------


          k = 0.0000 0.0000 0.0000 (744371 PWs)   bands (ev):

  -102.6847 -68.9803 -68.6043 -68.5640 -35.6763 -35.3142 -35.3070 -35.2736
   -35.2041 -35.1929 -23.3793 -23.3714 -23.1906 -23.1679 -23.1015 -23.0239
   -22.2329 -21.2259 -21.1646 -20.5676 -20.5518 -20.4529 -18.6441 -18.5969
   -17.8845 -17.4864 -17.3622 -17.3318 -16.4839 -16.4763 -13.5837

     highest occupied, lowest unoccupied level (ev):   -16.4763  -13.5837

!    total energy              =    -591.52404969 Ry
     total all-electron energy =      -591.524050 Ry
     estimated scf accuracy    <       0.00000084 Ry

     The total energy is the sum of the following terms:
     one-electron contribution =   -1807.66343577 Ry
     hartree contribution      =     866.06400943 Ry
     xc contribution           =     -72.70969625 Ry
     ewald contribution        =     549.38270592 Ry
     Hubbard energy            =       0.14382719 Ry
     one-center paw contrib.   =    -126.74146021 Ry

     total magnetization       =     1.00 Bohr mag/cell
     absolute magnetization    =     1.22 Bohr mag/cell

     convergence has been achieved in  18 iterations

     negative rho (up, down):  2.808E-02 2.635E-02

     Forces acting on atoms (cartesian axes, Ry/au):

     atom    1 type  1   force =     0.00005435    0.00035699   -0.00007378
     atom    2 type  2   force =    -0.00035044   -0.00142682    0.00154956
     atom    3 type  2   force =     0.00049896    0.00115686   -0.00164809
     atom    4 type  2   force =    -0.00320676   -0.00047137    0.00256951
     atom    5 type  2   force =     0.00296776    0.00009778   -0.00236882
     atom    6 type  2   force =    -0.00126971   -0.00068387   -0.00325725
     atom    7 type  2   force =     0.00102808    0.00059284    0.00324058
     atom    8 type  3   force =     0.00048055    0.01679105    0.00197169
     atom    9 type  3   force =    -0.00712592    0.00688000   -0.01342537
     atom   10 type  3   force =    -0.01432445    0.00870163   -0.00027809
     atom   11 type  3   force =    -0.01431424   -0.00717937   -0.00535775
     atom   12 type  3   force =    -0.00324728    0.00921330    0.01355474
     atom   13 type  3   force =     0.01125218    0.00812302   -0.00946302
     atom   14 type  3   force =     0.00716768   -0.00679038    0.01334889
     atom   15 type  3   force =    -0.01119375   -0.00805683    0.00957485
     atom   16 type  3   force =     0.00323089   -0.00909210   -0.01362613
     atom   17 type  3   force =    -0.00037684   -0.01674909   -0.00190936
     atom   18 type  3   force =     0.01439726    0.00715611    0.00527520
     atom   19 type  3   force =     0.01433168   -0.00861972    0.00032264

     Total force =     0.058684     Total SCF correction =     0.000766


     Computing stress (Cartesian axis) and pressure


     negative rho (up, down):  2.808E-02 2.635E-02
          total   stress  (Ry/bohr**3)                   (kbar)     P=        0.03
   0.00000038  -0.00000006   0.00000012            0.06       -0.01        0.02
  -0.00000006   0.00000029   0.00000008           -0.01        0.04        0.01
   0.00000012   0.00000008  -0.00000006            0.02        0.01       -0.01


     Writing all to output data dir ./out/FeH2O6.save/ :
     XML data file, charge density, pseudopotentials, collected wavefunctions

     init_run     :     13.02s CPU     12.13s WALL (       1 calls)
     electrons    :    220.44s CPU    197.28s WALL (       1 calls)
     forces       :     40.64s CPU     33.06s WALL (       1 calls)
     stress       :    130.58s CPU    114.70s WALL (       1 calls)

     Called by init_run:
     wfcinit      :      8.19s CPU      7.23s WALL (       1 calls)
     potinit      :      1.00s CPU      1.05s WALL (       1 calls)
     hinit0       :      0.59s CPU      0.62s WALL (       1 calls)

     Called by electrons:
     c_bands      :     93.08s CPU     80.79s WALL (      18 calls)
     sum_band     :     82.77s CPU     72.73s WALL (      18 calls)
     v_of_rho     :     11.62s CPU     11.73s WALL (      19 calls)
     newd         :     23.61s CPU     22.16s WALL (      19 calls)
     PAW_pot      :      5.99s CPU      6.01s WALL (      19 calls)
     mix_rho      :      4.83s CPU      4.88s WALL (      18 calls)

     Called by c_bands:
     init_us_2    :      1.51s CPU      1.54s WALL (      84 calls)
     init_us_2:cp :      1.51s CPU      1.54s WALL (      84 calls)
     cegterg      :     90.09s CPU     77.92s WALL (      36 calls)

     Called by *egterg:
     cdiaghg      :      0.61s CPU      0.32s WALL (     170 calls)
     h_psi        :     79.02s CPU     74.44s WALL (     172 calls)
     s_psi        :      5.05s CPU      2.58s WALL (     182 calls)
     g_psi        :      0.50s CPU      0.27s WALL (     134 calls)

     Called by h_psi:
     h_psi:calbec :      4.53s CPU      2.38s WALL (     172 calls)
     vloc_psi     :     68.09s CPU     68.38s WALL (     172 calls)
     add_vuspsi   :      4.27s CPU      2.16s WALL (     172 calls)
     vhpsi        :      1.48s CPU      0.75s WALL (     172 calls)

     General routines
     calbec       :     43.23s CPU     22.30s WALL (    4106 calls)
     fft          :      9.86s CPU      9.99s WALL (     441 calls)
     ffts         :      0.70s CPU      0.70s WALL (      36 calls)
     fftw         :     62.04s CPU     62.42s WALL (    7978 calls)

     Parallel routines

     Hubbard U routines
     new_ns       :      0.45s CPU      0.31s WALL (      18 calls)
     vhpsi        :      1.48s CPU      0.75s WALL (     172 calls)
     force_hub    :     36.75s CPU     29.70s WALL (       1 calls)
                                        0.00s GPU  (       1 calls)
     stres_hub    :    112.96s CPU     97.60s WALL (       1 calls)
                                        0.00s GPU  (       1 calls)

     PWSCF        :   6m45.77s CPU   5m59.99s WALL


   This run was terminated on:   6:45:52  11Mar2026            

=------------------------------------------------------------------------------=
   JOB DONE.
=------------------------------------------------------------------------------=
