! PBE0 def2-TZVP
%pal nprocs 32 end
%maxcore 3000

* xyz 0 3
  Fe  9.76415305920921      3.35895604330310      6.82993191004458
  O   9.42463739535867      1.48325135532178      6.89575066696449
  O   11.05609483685766      4.31693716144181      6.06868424439532
  O   8.33755387516358      4.37428040485539      6.57797982985061
  C   8.78659630465014      0.60387378074865      5.95413013120630
  C   11.04455046624725      5.28506627624781      5.04073399646924
  C   7.08984718049437      4.47726628573373      7.23876604419907
  C   9.61702432899846     -0.66630786360017      5.84154788384393
  H   10.61930583355190     -0.44136539246948      5.47299725570021
  H   9.14644257090398     -1.35946055485893      5.14076460706546
  H   9.69866748438949     -1.16184965043568      6.81067852388536
  C   7.38650235001995      0.26174906273363      6.44258139145277
  H   7.43531875440584     -0.14005486954374      7.45508046187438
  H   6.93203607809408     -0.48174848237707      5.78346125323777
  H   6.74444471639177      1.14334141013755      6.44479707552595
  C   8.73509199941363      1.31446584602606      4.61038761952505
  H   8.17296494578990      2.24837060649245      4.68181517194385
  H   8.24555044867451      0.68215350632224      3.86631955594433
  H   9.74344126571825      1.54051481531418      4.25503895950101
  C   12.49216183339244      5.38733959292063      4.56459530774453
  H   13.14376358432474      5.68234281266057      5.38982231978883
  H   12.58567035137138      6.12864980022168      3.76695146209734
  H   12.83392668155810      4.42184997684855      4.18549295324403
  C   10.58603959427914      6.62589439623938      5.60655933534859
  H   9.56507368002015      6.54532249327897      5.98149712457755
  H   10.61742781103744      7.40359302308660      4.83884405201260
  H   11.23957182319143      6.93052126981601      6.42760651844465
  C   10.14965593101293      4.86242128836304      3.88024367955229
  H   10.48105485608234      3.90174094008852      3.47827687967829
  H   10.19068406351105      5.59914944727505      3.07388973171923
  H   9.11353371556823      4.77192451695365      4.21009202860955
  C   6.98477778639991      3.52572781565133      8.42481962581497
  H   7.12840442136328      2.48804407348333      8.12296001028700
  H   6.00189783615351      3.61062378483756      8.89449697611866
  H   7.73625179582352      3.76607829131636      9.17963008834518
  C   5.99945059089324      4.18001459097904      6.21322796030677
  H   6.09978672862760      4.85067603397733      5.35744397948547
  H   5.00773790058057      4.32052009545223      6.65014530662486
  H   6.07140447680541      3.15242062989775      5.85299271728046
  C   6.95809857119518      5.92027351658292      7.72053483069669
  H   7.75610874359445      6.16029621059798      8.42589982240923
  H   5.99773067739273      6.07842307988394      8.21780701012691
  H   7.02769905599623      6.60897033834718      6.87609165960195
  Fe  10.35917655299274      1.03470736595198      8.52161005584055
  O   10.69871106557219      2.91039415722384      8.45578389035947
  O   9.06724336095191      0.07676360706954      9.28291096663669
  O   11.78583077568297      0.01947952086791      8.77356852896706
  C   11.33706986226610      3.78967216735533      9.39728036801001
  C   9.07876727174766     -0.89136033125767     10.31085775412042
  C   13.03363898664456     -0.08314895426917      8.11294476317126
  C   10.50703770287382      5.06010366211230      9.50970982823310
  H   9.50471629577036      4.83553495923379      9.87836690891943
  H   10.97789073244365      5.75321129312944     10.21034872409304
  H   10.42547659625545      5.55551137653973      8.54049629603061
  C   12.73723920332485      4.13129848830931      8.90867074812922
  H   12.68845931780080      4.53288980914078      7.89608366689539
  H   13.19197306153412      4.87482731583929      9.56758016790520
  H   13.37904047586616      3.24952023148474      8.90662199632122
  C   11.38848908020065      3.07924400998671     10.74111033100261
  H   11.95033024210742      2.14515463309798     10.66977383693463
  H   11.87827296390168      3.71152013082610     11.48505015926635
  H   10.38009221753489      2.85355998137887     11.09656417176630
  C   7.63113103896756     -0.99375998080943     10.78690310155894
  H   6.97960991943810     -1.28876783862241      9.96161219348871
  H   7.53761947578983     -1.73511527352271     11.58450440812895
  H   7.28926820489078     -0.02831421881547     11.16602442799195
  C   9.53744747464570     -2.23212673119353      9.74501589835675
  H   10.55843399927221     -2.15143436451122      9.37013418325313
  H   9.50608398333594     -3.00985467897641     10.51269946709923
  H   8.88398693528362     -2.53678269382410      8.92391995519839
  C   9.97356456699740     -0.46869057744337     11.47141074584114
  H   9.64202615016041      0.49190363664407     11.87346108532134
  H   9.93262612095681     -1.20550026596860     12.27769452583801
  H   11.00968426256348     -0.37801124121117     11.14160026072450
  C   13.13881230455734      0.86878827536460      6.92721469398430
  H   12.99498676942282      1.90634198629926      7.22939704086302
  H   14.12177613525118      0.78418832366606      6.45765492649673
  H   12.38750037054237      0.62854217172780      6.17219123890334
  C   14.12378339102888      0.21397649423482      9.13879588957824
  H   14.02342061694602     -0.45700807905305      9.99432721166741
  H   15.11559086106682      0.07380593983909      8.70197974981706
  H   14.05160120277829      1.24143477858937      9.49939635896293
  C   13.16566596386030     -1.52596803929197      7.63075159238174
  H   12.36783734361808     -1.76589076136004      6.92515349682090
  H   14.12616522548503     -1.68385042051668      7.13365760633596
  H   13.09596551315994     -2.21489762541892      8.47499881623841
*
