! PBE0 def2-TZVP
%pal nprocs 32 end
%maxcore 3000

* xyz 1 4
  Fe  12.50053552930764      2.98249144965292     24.87414017807369
  Fe  11.55559609988750      4.36037516306117     22.19025357607980
  Fe  10.13513791003749      5.06897136735331     24.93729079007634
  O   11.38465633884966      4.12159639229186     23.99131996546118
  O   13.74825854398319      1.75866762052346     25.91376428213454
  H   14.48609607883834      1.49210120343677     25.35370535890259
  H   14.10578601187376      2.30504803022197     26.62567577740820
  O   11.79321116069182      4.67162864274939     20.19444969456771
  H   12.67961860731832      4.36383453100612     19.96885549325281
  H   11.80353005257230      5.63305378515944     20.09795699694043
  O   8.75173217448146      6.15127746494788     25.95618363348914
  H   8.95465286936585      6.11667112891362     26.89790683846711
  H   8.88562219140443      7.06238743417049     25.66535198528473
  O   14.11853091423204      3.77251498122996     24.21512537730644
  O   13.49108883648285      4.36970280700781     22.15841003923468
  O   12.61840858387071      1.63975962295796     23.52075942815942
  O   11.54886216282931      2.50412134392522     21.76952247017237
  O   11.58714734866457      6.28411748879371     22.21955690085542
  O   10.26944138265259      6.73055402232469     23.95874515243122
  O   9.69084016156546      4.39975593585856     21.82746431304214
  O   8.70845697013848      4.49280661168040     23.82728573638856
  O   11.36041215739868      5.78771663711716     26.23203735531660
  O   12.71577742485207      4.03757512327874     26.48043160645069
  O   9.68429457553401      3.67812379819793     26.16234139008243
  O   11.06505364082023      2.00782665511535     25.65282635848450
  C   14.35022131016857      4.21928841570827     23.06309208541499
  C   15.77682903996467      4.66634407449619     22.74846172686919
  C   16.14669194808599      4.26234496648028     21.32250443338667
  H   15.48396296307920      4.72495007714538     20.59099009575004
  H   16.10659759019181      3.17845172477114     21.19014088842672
  H   17.16652476006681      4.58725642741795     21.10687103983592
  C   15.78268000985543      6.19592304647111     22.87162741433042
  H   15.06521552003881      6.64879931061438     22.18484864304040
  H   16.77739842169285      6.57632872468251     22.62940913540440
  H   15.53953334863001      6.51234176917091     23.88888798282692
  C   16.77049271281971      4.06475646902981     23.73539132665082
  H   16.78185220623178      2.97383240701219     23.67535809170704
  H   16.53933078331491      4.35000280024526     24.76185774723294
  H   17.77589210242586      4.42014333610558     23.50053515468194
  C   12.08282806101045      1.55090312788187     22.38675564945077
  C   12.04293156948781      0.17700289353383     21.72370926634921
  C   10.68036332268934     -0.42574944481154     22.09346325205751
  H   9.86085359082555      0.18672758993889     21.71291766293028
  H   10.57387871004573     -0.52267668900342     23.17626896832780
  H   10.59486854274651     -1.42193479129283     21.65364770045390
  C   13.16056596780256     -0.71239204071983     22.25756064290879
  H   14.14474776527794     -0.29233689817993     22.03619532922221
  H   13.10146269035039     -1.69224216240875     21.77916666656701
  H   13.08111503571022     -0.85300328240597     23.33549099456845
  C   12.15682447203732      0.31962564677710     20.20841845704721
  H   13.11358497354215      0.76488743368413     19.92339316006159
  H   11.35700394988623      0.93886479636160     19.80307479566292
  H   12.09882879526398     -0.66724477065481     19.74446087957433
  C   10.95004673044451      7.07432620811795     22.96062326731745
  C   11.02771135575830      8.56889235892333     22.65536886569831
  C   11.71276451755080      8.82346461532867     21.31842489580675
  H   11.77724725033228      9.89936052469840     21.14388026839768
  H   11.14910020925186      8.38760613022641     20.49020217363676
  H   12.72465193383771      8.41658347680889     21.30174376412365
  C   9.61166813723008      9.14732112468624     22.63248911395421
  H   9.65989550809410     10.21544285304681     22.41113057379786
  H   9.11197844200530      9.02326507018494     23.59354750208818
  H   8.99830170698817      8.67275090508043     21.86276615012666
  C   11.83819998569730      9.21591493098876     23.78499138093743
  H   11.89184480167854     10.29445580675929     23.62229203630396
  H   12.85977622614865      8.82898303360658     23.81321587008041
  H   11.37571447117667      9.03660644878338     24.75656617368243
  C   8.69096929868567      4.31561458005476     22.58597747289238
  C   7.36121962850512      3.95173071192482     21.92971460725265
  C   7.45983004941745      2.47309968032242     21.53467219607013
  H   6.53877534576367      2.17088376102031     21.03138931837477
  H   7.58549878558102      1.83612591676016     22.41396181940780
  H   8.29745652221368      2.30402023459782     20.85602908164831
  C   7.17191773996208      4.80691985336398     20.67625952490943
  H   6.23433264049822      4.53077751015816     20.18914760224278
  H   7.98657039956959      4.65894734432652     19.96744946948965
  H   7.11686695950788      5.86964565234415     20.92595466094791
  C   6.20002805608281      4.15986476491229     22.89320742855475
  H   5.26755813535726      3.87334107100681     22.40211691774047
  H   6.11547452219197      5.20470175380618     23.19786513296857
  H   6.31365761354594      3.55696245234301     23.79452432732105
  C   12.29144036845667      5.16978512307960     26.81261731504107
  C   12.93753680708068      5.86631147079066     28.00840864259174
  C   13.46841059828099      7.22393583903308     27.53956296578648
  H   14.23738804423254      7.10840540394910     26.77156355945289
  H   13.91643774548187      7.74968164351951     28.38544239988669
  H   12.66688841415537      7.84205336920274     27.13449364804444
  C   11.85486966656147      6.07603803007720     29.07156622212775
  H   11.43274942139035      5.12533911948045     29.40677675262390
  H   11.04722601871537      6.70349325951202     28.69138732298992
  H   12.28762424929126      6.57538192910601     29.94098057376070
  C   14.07503866721712      5.03224802006148     28.58293875516081
  H   14.52047629378041      5.55842156333434     29.42975095782944
  H   14.86010910590729      4.86492406258387     27.84287121099533
  H   13.72240473918858      4.06291747903503     28.94049245322640
  C   10.03583296306880      2.46870242579159     26.19838390606115
  C   9.14957335676655      1.51381905204057     26.99212316729308
  C   7.71350034622123      1.64626828055412     26.48091632335412
  H   7.06057043408825      0.98877125462059     27.05897178669437
  H   7.63852892017799      1.35309122979690     25.43069750290831
  H   7.35127894899988      2.66983526211031     26.57793477566628
  C   9.21844239092304      1.94516609472254     28.46139605325283
  H   8.58717695785977      1.28606382967826     29.06120849351238
  H   8.86329701786039      2.96862263894313     28.59028361669625
  H   10.23771856368185      1.87564300693135     28.84980498920091
  C   9.63199444875281      0.07609822948364     26.84890322253836
  H   8.98630675633224     -0.58122791501973     27.43519944360945
  H   10.65627033645954     -0.04300975675661     27.20403480195047
  H   9.59780655509230     -0.25380191887169     25.80917765316203
*
