! PBE0 def2-TZVP
%pal nprocs 32 end
%maxcore 3000

* xyz 3 2
  Fe  0.49076811251166     -0.65436521316355     -0.77386033292672
  O   -0.43846349848751      0.94003230943277     -1.35569794556444
  O   -0.18944647365008     -1.33120429520144      0.93129734963754
  O   2.09316601224465     -1.59662566962792     -1.35970813647769
  H   -1.19879294767907      0.83939699653216     -1.95630635482495
  C   3.52682594313304     -1.45742361641116     -1.00767742098055
  H   -0.18039393949437     -0.76394779171417      1.72166465133408
  C   -0.25238455218080      2.39640542227601     -1.09733021618596
  H   2.02707972228310     -2.19450100278101     -2.12599087446930
  C   -0.72950345811018     -2.65860464981779      1.29976181381422
  H   0.80830798065683      2.52539721041043     -0.84881850914699
  H   -0.82648913103994      2.59864982403005     -0.17179495283068
  C   -0.71665260705451      3.24577487392829     -2.21728379482479
  H   -0.12069080802967      3.10285998693367     -3.14025357483797
  H   -0.60037073514378      4.29484747653762     -1.92577417114471
  H   -1.76841733637316      3.08187611192053     -2.49766853801220
  H   -1.26539092440922     -3.02855265835324      0.41404684512570
  C   -1.55052540810077     -2.63916804100074      2.53161969378393
  H   0.15369331398324     -3.31932527518358      1.42594779817456
  H   -2.45495675324478     -2.00930247948192      2.42018487331340
  H   -1.02682266187223     -2.26040418542427      3.42575366709102
  H   -1.87056545487027     -3.66253490369160      2.74910952350820
  H   3.54987348048027     -1.31306160887533      0.08055151535906
  H   3.87111502061861     -0.50793453330510     -1.46316817809271
  C   4.35125776608713     -2.59150985925733     -1.49396279329722
  H   3.99530109983489     -3.55903397293244     -1.10044742085770
  H   5.38624222949608     -2.40998399784702     -1.18266717246643
  H   4.39343600841080     -2.70619645793191     -2.59313734420067
*
