! PBE0 def2-TZVP
%pal nprocs 32 end
%maxcore 3000

* xyz 3 6
  Fe  -0.53345467379034     -0.13972428601702      0.19467954751068
  O   -1.86636985774973     -0.33993919519690     -1.33287515485831
  O   0.79901556787826      0.05967187952804      1.72310797863500
  O   0.10284777075836      1.63382192533203     -0.58328395829054
  O   -1.16833640172203     -1.91408060795558      0.97190504758513
  O   -1.93344836855219      0.85308157047666      1.28982199983232
  O   0.86752769917186     -1.13144117502669     -0.89999188289860
  H   -2.08782918668048      1.81413133239339      1.29283912384981
  H   -0.22342004115951      2.06197901983926     -1.39428558457959
  H   -2.78428821761137     -0.01641344189538     -1.34543767981406
  H   -1.86533291175979     -2.48690717725355      0.60659261629753
  H   0.63779909817178      0.49720486206886      2.57752069742519
  H   1.51354392482665     -0.73449137659448     -1.51039676488872
  H   -0.84237129877907     -2.34102896116233      1.78359528862189
  H   -2.57687612112853      0.45749799267505      1.90386125351672
  H   -1.70325196537550     -0.77329696674690     -2.18905266612349
  H   1.01890178384440     -2.09293583930621     -0.90752215264246
  H   0.79737524129788      2.20816850239779     -0.21563581277146
  H   1.71595795835937     -0.26654805755604      1.73639810359295
*
