&CONTROL
   calculation      = 'scf'
   restart_mode     = 'from_scratch'
   tstress          = .true.
   tprnfor          = .true.
   outdir           = './Cr_0_0'
   prefix           = 'Cr_0_0'
   disk_io = 'default'
   pseudo_dir       = '.'
/
&SYSTEM
   ecutwfc          = 90.000000000000
   ecutrho          = 600.000000000000
   occupations      = 'fixed'
   nspin            = 2
   input_dft        = 'PBE'
   ntyp             = 3
   nat              = 72
   ibrav            = 0
   tot_magnetization = 54  
   starting_magnetization(1) = 3.0
   starting_magnetization(2) = 0.0
   starting_magnetization(3) = 3.0
   Hubbard_alpha(1) = 0.00
/
&ELECTRONS
   conv_thr         = 1e-10
   electron_maxstep = 300
   mixing_beta      = 0.3
   startingpot      = 'file'
   startingwfc      = 'atomic'
   diago_david_ndim = 8
/
&IONS
/
&CELL
/
&FCP
/
&RISM
/
ATOMIC_SPECIES
Cr1  51.9961 Cr.GGA-PBE-paw.UPF
I  126.90447 I.GGA-PBE-paw.UPF
Cr  51.9961 Cr.GGA-PBE-paw.UPF

K_POINTS automatic
2 2 1  0 0 0

CELL_PARAMETERS angstrom
 21.023832304138430   0.0000000000000000   0.000000000000000
-10.511916152069219   18.207172860287812   0.000000000000000
  0.000000000000000   0.0000000000000000   28.03177640551791

ATOMIC_POSITIONS angstrom
Cr1      6.87698202       7.94085485       9.03176873
Cr       3.43849101       1.98521371       9.03176873
Cr       0.00000000       3.97042742       9.03176919
I        4.42260340      -0.00001318       7.48054615
I        1.22717790       2.12556082       7.48054615
I       -2.21129029       3.83009349       7.48054615
I        2.45437873      -0.00001140      10.58299027
I        2.21129177       3.83009250      10.58299027
I       -1.22717949       2.12556004      10.58299027
Cr      -0.00000000       7.94085485       9.03176873
Cr      -3.43849101       9.92606855       9.03176919
I        0.98411239       5.95562795       7.48054615
I       -2.21131311       8.08120195       7.48054615
I       -5.64978130       9.78573462       7.48054615
I       -0.98411228       5.95562973      10.58299027
I       -1.22719924       9.78573363      10.58299027
I       -4.66567050       8.08120117      10.58299027
Cr      -3.43849101      13.89649598       9.03176873
Cr      -6.87698202      15.88170968       9.03176919
I       -2.45437862      11.91126909       7.48054615
I       -5.64980412      14.03684309       7.48054615
I       -9.08827231      15.74137575       7.48054615
I       -4.42260329      11.91127086      10.58299027
I       -4.66569025      15.74137476      10.58299027
I       -8.10416151      14.03684230      10.58299027
Cr      10.31547303       1.98521371       9.03176873
Cr       6.87698202       3.97042742       9.03176919
I       11.29958542      -0.00001318       7.48054615
I        8.10415992       2.12556082       7.48054615
I        4.66569173       3.83009349       7.48054615
I        9.33136075      -0.00001140      10.58299027
I        9.08827380       3.83009250      10.58299027
I        5.64980253       2.12556004      10.58299027
Cr       3.43849101       9.92606855       9.03176919
I        7.86109441       5.95562795       7.48054615
I        4.66566891       8.08120195       7.48054615
I        1.22720072       9.78573462       7.48054615
I        5.89286974       5.95562973      10.58299027
I        5.64978278       9.78573363      10.58299027
I        2.21131152       8.08120117      10.58299027
Cr       3.43849101      13.89649598       9.03176873
Cr       0.00000000      15.88170968       9.03176919
I        4.42260340      11.91126909       7.48054615
I        1.22717790      14.03684309       7.48054615
I       -2.21129029      15.74137575       7.48054615
I        2.45437873      11.91127086      10.58299027
I        2.21129177      15.74137476      10.58299027
I       -1.22717949      14.03684230      10.58299027
Cr      17.19245505       1.98521371       9.03176873
Cr      13.75396404       3.97042742       9.03176919
I       18.17656744      -0.00001318       7.48054615
I       14.98114195       2.12556082       7.48054615
I       11.54267375       3.83009349       7.48054615
I       16.20834277      -0.00001140      10.58299027
I       15.96525582       3.83009250      10.58299027
I       12.52678455       2.12556004      10.58299027
Cr      13.75396404       7.94085485       9.03176873
Cr      10.31547303       9.92606855       9.03176919
I       14.73807643       5.95562795       7.48054615
I       11.54265094       8.08120195       7.48054615
I        8.10418274       9.78573462       7.48054615
I       12.76985176       5.95562973      10.58299027
I       12.52676481       9.78573363      10.58299027
I        9.08829354       8.08120117      10.58299027
Cr      10.31547303      13.89649598       9.03176873
Cr       6.87698202      15.88170968       9.03176919
I       11.29958542      11.91126909       7.48054615
I        8.10415992      14.03684309       7.48054615
I        4.66569173      15.74137575       7.48054615
I        9.33136075      11.91127086      10.58299027
I        9.08827380      15.74137476      10.58299027
I        5.64980253      14.03684230      10.58299027

HUBBARD ortho-atomic
U  Cr1-3d 0.0000000001
J0 Cr1-3d 0.0000000001

