&CONTROL
   calculation      = 'scf'
   restart_mode     = 'from_scratch'
   tstress          = .true.
   tprnfor          = .true.
   outdir           = './lt_fm_afm_qe'
   prefix           = 'lt_fm_afm_qe'
   disk_io          = 'low'
   pseudo_dir       = '../..'
/
&SYSTEM
   nbnd             = 100
   tot_magnetization = 0
   ecutwfc          = 90.0000000000000
   ecutrho          = 370.000000000000
   occupations      = 'fixed'
   nspin            = 2
   input_dft        = 'PBE'
   assume_isolated  = '2D'
   starting_magnetization(1) = 3.0
   starting_magnetization(2) = 0.0
   starting_magnetization(3) = -3.0
   ntyp             = 3
   nat              = 16
   ibrav            = 0
/
&ELECTRONS
   conv_thr         = 1e-11
   diago_david_ndim = 8
   electron_maxstep = 300
   mixing_beta      = 0.5
   startingpot      = 'file'
   startingwfc      = 'atomic'
/
&IONS
/
&CELL
/

ATOMIC_SPECIES
Cr  51.9961 Cr.GGA-PBE-paw.UPF
I  126.90447 I.GGA-PBE-paw.UPF
Cr1  51.9961 Cr.GGA-PBE-paw.UPF

K_POINTS automatic
6 6 1  0 0 0

CELL_PARAMETERS angstrom
6.87698202200000 -0.00000000000000 0.00000000000000
-3.43849101100000 5.95564113200000 0.00000000000000
-0.00000000000000 0.00000000000000 27.50792808800000

ATOMIC_POSITIONS angstrom
Cr               2.2923060264        3.9704089527       17.0352092873
Cr              -1.1461543812        5.9556534026       17.0436856200
I                3.2912782404        1.9792993324       15.5017290081
I                0.0684633548        4.1008826937       15.5017297965
I               -3.3597694168        5.8311262889       15.5017451494
I                1.2981529287        1.9881315323       18.5764757279
I                1.0726812740        5.8225513595       18.5764759532
I               -2.3708612369        4.1006192941       18.5764602713
Cr1              5.7308070253        1.9852347327       10.4642369816
Cr1              2.2922922882        3.9704225562       10.4727154905
I                6.7249777777       -0.0028951887        8.9314766294
I                3.5119694908        2.1183146460        8.9314530773
I                0.0784993012        3.8402462821        8.9314427848
I                4.7318615540        0.0059495782       12.0061978265
I                4.5161789993        3.8399883286       12.0061930223
I                1.0674059542        2.1097281485       12.0062010641

HUBBARD atomic
U Cr-3d 2.73
U Cr1-3d 2.73

