!------------------------------------------------------------------------------!
!--------------------------------- INPUT FILE ---------------------------------!
!------------------------------------------------------------------------------!

charge : 3
cutoff_energy : 800 eV
do_properties : T
edft : F
fine_grid_scale : 4
forces_output_detail : VERBOSE
output_detail : VERBOSE
paw : T
pseudo_path : ../../..
spin : 5
task : SINGLEPOINT
write_denskern : T
write_forces : T
write_tightbox_ngwfs : T
xc_functional : pbe

%BLOCK HUBBARD
Fe 2 4.0 0 -10 0 0
%ENDBLOCK HUBBARD

%BLOCK LATTICE_CART
ang
     24.26273295       0.00000000       0.00000000
      0.00000000      24.37834389       0.00000000
      0.00000000       0.00000000      24.49207180
%ENDBLOCK LATTICE_CART

%BLOCK POSITIONS_ABS
ang
   Fe    12.250834    12.347183    12.383732
    O    10.917918    12.146968    10.856178
    O    13.583304    12.546579    13.912161
    O    12.887136    14.120729    11.605769
    O    11.615952    10.572827    13.160958
    O    10.850840    13.339989    13.478875
    O    13.651816    11.355466    11.289061
    H    10.696459    14.301039    13.481892
    H    12.560868    14.548886    10.794767
    H    10.000000    12.470494    10.843615
    H    10.918955    10.000000    12.795645
    H    13.422087    12.984112    14.766573
    H    14.297832    11.752416    10.678656
    H    11.941917    10.145878    13.972648
    H    10.207412    12.944405    14.092914
    H    11.081036    11.713610    10.000000
    H    13.803190    10.393971    11.281531
    H    13.581663    14.695076    11.973417
    H    14.500246    12.220359    13.925451
%ENDBLOCK POSITIONS_ABS

%BLOCK SPECIES
Fe Fe 26 -1 10.0
H H 1 -1 10.0
O O 8 -1 10.0
%ENDBLOCK SPECIES

%BLOCK SPECIES_ATOMIC_SET
Fe "SOLVE INIT SPIN=5"
H  "SOLVE"
O  "SOLVE"
%ENDBLOCK SPECIES_ATOMIC_SET

%BLOCK SPECIES_POT
Fe Fe.PBE-paw.abinit
H H.PBE-paw.abinit
O O.PBE-paw.abinit
%ENDBLOCK SPECIES_POT

!------------------------------------------------------------------------------!
!-------------------------------- END OF INPUT --------------------------------!
!------------------------------------------------------------------------------!
