!------------------------------------------------------------------------------!
!--------------------------------- INPUT FILE ---------------------------------!
!------------------------------------------------------------------------------!

charge : 3
cutoff_energy : 800 eV
do_properties : T
edft : F
fine_grid_scale : 4
forces_output_detail : VERBOSE
output_detail : VERBOSE
paw : T
pseudo_path : ../../..
spin : 1
task : SINGLEPOINT
write_denskern : T
write_forces : T
write_tightbox_ngwfs : T
xc_functional : pbe

%BLOCK HUBBARD
Fe 2 4.0 0 -10 0 0
%ENDBLOCK HUBBARD

%BLOCK LATTICE_CART
ang
     24.26273295       0.00000000       0.00000000
      0.00000000      24.37834389       0.00000000
      0.00000000       0.00000000      24.49207180
%ENDBLOCK LATTICE_CART

%BLOCK POSITIONS_ABS
ang
   Fe    12.131409    12.189430    12.246010
    O    10.852025    11.974546    10.809567
    O    13.409684    12.402138    13.683725
    O    12.703018    13.906702    11.545482
    O    11.558212    10.474108    12.948319
    O    10.764765    13.123292    13.250511
    O    13.495125    11.254929    11.237207
    H    10.736446    14.086048    13.386765
    H    12.308696    14.358703    10.779612
    H    10.000000    12.439837    10.746818
    H    10.752702    10.000000    12.679156
    H    13.274587    12.926097    14.492072
    H    14.170631    11.672698    10.675578
    H    11.953005    10.019251    13.712311
    H    10.093469    12.702583    13.815024
    H    10.990876    11.453445    10.000000
    H    13.527032    10.291203    11.108929
    H    13.511670    14.378344    11.809422
    H    14.262733    11.938399    13.743870
%ENDBLOCK POSITIONS_ABS

%BLOCK SPECIES
Fe Fe 26 -1 10.0
H H 1 -1 10.0
O O 8 -1 10.0
%ENDBLOCK SPECIES

%BLOCK SPECIES_ATOMIC_SET
Fe "SOLVE INIT SPIN=1"
H  "SOLVE"
O  "SOLVE"
%ENDBLOCK SPECIES_ATOMIC_SET

%BLOCK SPECIES_POT
Fe Fe.PBE-paw.abinit
H H.PBE-paw.abinit
O O.PBE-paw.abinit
%ENDBLOCK SPECIES_POT

!------------------------------------------------------------------------------!
!-------------------------------- END OF INPUT --------------------------------!
!------------------------------------------------------------------------------!
