! PBE def2-TZVP
%pal nprocs 32 end
%maxcore 3000

* xyz 0 11
  Fe  9.68933399600220      3.39849518094285      6.87001064205514
  O   9.73223524423931      1.41414891120639      6.68833216677878
  O   10.96570824632888      4.22717195490451      5.89655071814027
  O   8.04919101800948      4.11339538235480      6.70574605478698
  C   8.99040840350320      0.56783839638236      5.80063007543780
  C   11.04432257016929      5.26146545779687      4.94476656143090
  C   6.84418636957156      4.48922475841785      7.32437859257677
  C   9.70362291968385     -0.77446719624016      5.72505785014614
  H   10.72289770758931     -0.64810983002896      5.35491143059891
  H   9.17475311771253     -1.45201915264420      5.05112916064249
  H   9.74356683569655     -1.24791808107465      6.71001419932176
  C   7.57753988033599      0.39022045028855      6.33704166195394
  H   7.60475816617394     -0.01107029989348      7.35210339705502
  H   7.00882029652575     -0.29280834630610      5.70134341787658
  H   7.06051462612647      1.35081965453573      6.35611021892883
  C   8.96643777065167      1.23224810037707      4.43261631869003
  H   8.45036285760419      2.19497453865234      4.48209439332983
  H   8.43670099923648      0.60609382487029      3.71104885449213
  H   9.98283078639083      1.39776451752783      4.06938399419346
  C   12.47170858145499      5.27514062171004      4.40774640927456
  H   13.17950782458075      5.45736827059044      5.21926577951253
  H   12.60182547607366      6.05455042929835      3.65259803969019
  H   12.71118903714030      4.30991138596865      3.95647676286992
  C   10.71928113733957      6.59148804109747      5.61874123305251
  H   9.70574259224073      6.56744150564428      6.02629078079965
  H   10.78576957930441      7.41991566242545      4.90883235599808
  H   11.42028710115692      6.78313379845524      6.43464898816582
  C   10.05788194193539      4.99614478538076      3.81129778028802
  H   10.28119176480209      4.04066423853628      3.33119770259558
  H   10.11299459715671      5.78173262404334      3.05342999318343
  H   9.03704096965580      4.96208795820226      4.19962328024936
  C   6.62741244279308      3.66844996647830      8.59130950172930
  H   6.58350755052920      2.60290973827941      8.35791821219701
  H   5.69422639978378      3.95148135735270      9.08459741096791
  H   7.44882318863773      3.82445914809806      9.29396088887979
  C   5.71082904004920      4.24327892441330      6.33229103791011
  H   5.88488885200913      4.81033550626493      5.41543297273932
  H   4.75020515694372      4.55004183032144      6.75337588926498
  H   5.64921186745293      3.18416623742809      6.07399443662822
  C   6.91698393180644      5.97580963311066      7.66213861443412
  H   7.73867804579083      6.17077151305027      8.35435059327763
  H   5.98836491949040      6.31682832127821      8.12674439132750
  H   7.08353108959429      6.56112815405541      6.75515769879538
  Fe  10.43410461794353      0.99521983662377      8.48155996969057
  O   10.39123540493362      2.97956773637437      8.66322655920427
  O   9.15772245760705      0.16653752785107      9.45500273712099
  O   12.07424746740905      0.28032761982059      8.64586620082063
  C   11.13315605355410      3.82585730159574      9.55085858958105
  C   9.07909794362366     -0.86779791719320     10.40674192937403
  C   13.27939264741959     -0.09519710254949      8.02732708434303
  C   10.41998584308267      5.16818347246050      9.62648165076240
  H   9.40073500308337      5.04185530964774      9.99670734762209
  H   10.94892660961744      5.84572365748478     10.30036656554594
  H   10.37997902925302      5.64163160686800      8.64152654148306
  C   12.54597573701458      4.00341656676235      9.01429816404989
  H   12.51866474575079      4.40471830701199      7.99924317473171
  H   13.11479110498043      4.68641558502424      9.64994210166157
  H   13.06295854229641      3.04279417362123      8.99516263392767
  C   11.15723483501486      3.16145314593101     10.91887266115783
  H   11.67328418104538      2.19871515301360     10.86935125251993
  H   11.68705215490418      3.78759801558019     11.64038918846187
  H   10.14087166206660      2.99596027352376     11.28219861393613
  C   7.65171791710271     -0.88146485014045     10.94377745860676
  H   6.94390535679223     -1.06364212148308     10.13225839949405
  H   7.52159300995870     -1.66090462739365     11.69889342045124
  H   7.41226397063272      0.08375010607248     11.39509165192676
  C   9.40409894195056     -2.19780138486915      9.73270872202122
  H   10.41763167631180     -2.17376440985463      9.32514710029874
  H   9.33759647175383     -3.02625651903131     10.44258410379550
  H   8.70307652314507     -2.38939434802245      8.91680263782164
  C   10.06555470773849     -0.60254494609668     11.54021245419323
  H   9.84227224502622      0.35292400064544     12.02034731538584
  H   10.01042793264616     -1.38815896775571     12.29805200800553
  H   11.08639422118982     -0.56850203251495     11.15188126982835
  C   13.49653684003868      0.72634888805794      6.76096203479565
  H   13.54041211347261      1.79174517034355      6.99502623073019
  H   14.42984519350602      0.44359149945124      6.26774874761637
  H   12.67530965414263      0.57079830746473      6.05799795870624
  C   14.41250204884890      0.15009690967001      9.01985811429946
  H   14.23817312556527     -0.41750305423671      9.93632869725168
  H   15.37321983094510     -0.15646288474941      8.59883923613454
  H   14.47410883605980      1.20904998396926      9.27880854042406
  C   13.20661424374211     -1.58157467103917      7.68864893159296
  H   12.38510033066697     -1.77607577375762      6.99609264109876
  H   14.13534351281197     -1.92235647068589      7.22409035993507
  H   13.03979035607678     -2.16743594704946      8.59522853732405
*
