! PBE def2-TZVP
%pal nprocs 32 end
%maxcore 3000

* xyz 1 16
  Fe  12.51580855333414      2.88403168619080     24.91624293022003
  Fe  11.60275598719965      4.32214639943877     22.09293082892330
  Fe  10.16355260919785      5.18940754557936     24.93389204689304
  O   11.41812777199648      4.12520527014844     23.97644367605020
  O   13.83654550063193      1.46143428198198     25.87263249420692
  H   14.02088265657847      0.76262839865441     25.23360327684224
  H   14.67835581199560      1.87825801914147     26.08905060942523
  O   11.72799141719266      4.68322307321109     19.96015818651361
  H   11.71951266259791      5.64341033355607     19.85970012679448
  H   10.93460199519731      4.34959836849221     19.52617293208558
  O   8.74800089787680      6.32944181185136     26.11825872835422
  H   8.37925200225604      5.72273047376417     26.77183647247276
  H   9.21135590650167      7.01971458560793     26.60564664776648
  O   14.22941626829677      3.56730629109252     24.05738852160604
  O   13.58309254927838      4.51504268495859     22.15012277572739
  O   12.43165966049885      1.40888193294527     23.54056876204164
  O   11.73402961617247      2.37181408845474     21.66044598043220
  O   11.45939721039227      6.36328281295201     22.07886948012195
  O   10.57788535664169      6.92316689435624     24.04361588788639
  O   9.61380970031718      4.21031589068399     21.73122108201669
  O   8.67151110242603      4.81176481387869     23.65665615215103
  O   11.46978340507133      5.72122059022535     26.40477658040868
  O   12.94380970777123      4.05577386820541     26.48117712922393
  O   9.49090792579554      3.69972130991925     26.12913377328490
  O   10.98187949078931      2.06214544835438     25.90456640264091
  C   14.45475672439291      4.23653692136795     23.01730720690603
  C   15.86230781532453      4.77204932645144     22.77445531339533
  C   16.32698720395994      4.31544122782150     21.38949281176374
  H   15.64195250073956      4.65286190796892     20.61156739175980
  H   16.40215157284261      3.22651785996125     21.33365688849199
  H   17.31664595911523      4.72908549568926     21.18384989422879
  C   15.77188986663456      6.30247401857367     22.80695995210445
  H   15.07707117659443      6.66946778231373     22.05053126671055
  H   16.75763015585430      6.72781053416618     22.60619766888594
  H   15.44461926039623      6.66239181066919     23.78610808765363
  C   16.83188631652137      4.28459143487441     23.84222916711062
  H   16.91264645212384      3.19580191702880     23.84150545562731
  H   16.52383192184307      4.60301406090390     24.83956245876750
  H   17.82541046175607      4.69360546238596     23.64650992435987
  C   12.09202095339792      1.36776727544581     22.32632277410768
  C   12.06934816145722      0.00396336538004     21.64554783001531
  C   10.71522393460997     -0.62369310527787     22.00752210304449
  H   9.88644232194376     -0.01842309812812     21.63344929433530
  H   10.60813272962732     -0.73528979878282     23.08847728717674
  H   10.64223515680936     -1.61422042835216     21.55304797883684
  C   13.20030763895133     -0.87251155188780     22.17786998406990
  H   14.17824177407157     -0.42677578437285     21.97923729193879
  H   13.17213950589104     -1.84463426606229     21.68149178665637
  H   13.10406670232171     -1.04048545116636     23.25107105430819
  C   12.18599426773962      0.15430301767390     20.13295686750315
  H   13.12404366584543      0.63725720655430     19.85080370095654
  H   11.36646966896389      0.74681406862575     19.72663697750703
  H   12.16032990626703     -0.83232683411797     19.66551572712422
  C   11.06877097914174      7.21333761954643     22.91940211845455
  C   11.17494075941568      8.69577638206376     22.57621908603697
  C   11.85936699838155      8.90611109416381     21.23241352731629
  H   11.94752807534097      9.97593034565793     21.03211286753245
  H   11.28537825896604      8.46255271654541     20.41617124385236
  H   12.86239781171988      8.47612798992927     21.22092045934276
  C   9.75060147874265      9.26093897753466     22.53443524511824
  H   9.78935460800300     10.32758870658954     22.30331036703504
  H   9.24595407246772      9.13372664062780     23.49274523710055
  H   9.15125743997280      8.77295722864873     21.76138704180636
  C   11.97379547925344      9.38674984700719     23.68497439726232
  H   12.02475355062850     10.45868202622768     23.48253859962788
  H   12.99730436594063      9.00631188228615     23.73312357448975
  H   11.50538425037843      9.23991455298866     24.65827252409198
  C   8.60981010376364      4.39537215784424     22.47242714902757
  C   7.23955047799463      4.06723488360388     21.88754576713183
  C   7.18637928197693      2.54459078121004     21.70708066813431
  H   6.22802315210373      2.26474718507088     21.26415658472581
  H   7.27507666214723      2.02809083966620     22.66614224873939
  H   7.98498842227068      2.19703441331888     21.04963239516718
  C   7.10074261812230      4.75200522848106     20.52697058666813
  H   6.12972791858041      4.50408730559306     20.09334961147662
  H   7.87605954715698      4.42237782935285     19.83460638835954
  H   7.15685406593197      5.83944204327829     20.62034160680169
  C   6.12323215648636      4.52042475509714     22.81882230546910
  H   5.15675771343755      4.26995000831661     22.37597036219365
  H   6.15279056879916      5.59870244057380     22.98480236677161
  H   6.19003689988226      4.03089511479104     23.79115442198649
  C   12.47266879195527      5.14637654146992     26.90086020320233
  C   13.12797789714557      5.78651100077421     28.12094331947698
  C   13.11085496698070      7.30757064554316     27.99008622530507
  H   13.68193759112112      7.63988416138936     27.11987760352618
  H   13.56113742071199      7.75550192742551     28.87836993100480
  H   12.09442378280027      7.68877125268720     27.89284011481065
  C   12.28196420215828      5.35939179291373     29.32909703926969
  H   12.26978432736143      4.27271797378762     29.44123848092094
  H   11.25271254469064      5.71281017144694     29.23797920168350
  H   12.70700533074074      5.78705561968955     30.23982522152606
  C   14.55797654545936      5.28823414889809     28.29598781125622
  H   15.00442663680025      5.76309064852574     29.17222301787140
  H   15.17537050204248      5.53372558334239     27.42899210314281
  H   14.58936199036599      4.20831379206728     28.44209983759377
  C   9.89539823250884      2.52175498364417     26.33683153810340
  C   8.98235967368389      1.58564061251022     27.12033699649103
  C   7.98076744737727      1.02546055038630     26.09927441553236
  H   7.28607420658639      0.35270176059794     26.60690717375983
  H   8.49040884038429      0.45787851034557     25.31719935550316
  H   7.40246872802675      1.82594572365906     25.63305315066467
  C   8.23402828935255      2.35794092005281     28.20440401470087
  H   7.59322099099648      1.67204433507731     28.76229836853729
  H   7.60162030966650      3.13678745565119     27.77720540771571
  H   8.92406800776097      2.82067039053188     28.91458800119019
  C   9.78010816638728      0.44447650897798     27.74046939573173
  H   9.10131745362964     -0.22710862333913     28.27044204261625
  H   10.51615148951183      0.81440885767647     28.45764158381950
  H   10.31066137477955     -0.13081849110087     26.98216406388046
*
