! PBE def2-TZVP
%pal nprocs 32 end
%maxcore 3000

* xyz 3 6
  Fe  0.50351475542534     -0.58648829044104     -0.16866363013748
  O   -0.18336546739423      0.88746104844726     -1.08250498166829
  O   -0.64871286894009     -1.48946077478038      0.98055434262977
  O   2.27865313248318     -1.14529972552886     -0.33930404065523
  H   -1.14893183295796      0.99214608051140     -1.19009278362485
  C   3.46496071091656     -0.85231608777546     -1.39667714064035
  H   -1.46431105680591     -1.06034171769767      1.30527934256603
  C   0.44044049641806      2.18999673049048     -1.84516727421546
  H   2.67865676805412     -1.74506845358789      0.31981439768693
  C   -0.67838251850244     -2.98108200346903      1.69744081122332
  H   0.73972968936425      1.75305209878891     -2.79805314169007
  H   1.28437424133712      2.43643929135677     -1.20200660420438
  C   -0.61804786022459      3.21797250803735     -1.92671731123101
  H   -1.47110950652487      2.91445629824412     -2.54012862752588
  H   -0.14948432144531      4.05832054768281     -2.46633752186762
  H   -0.92839054663857      3.60589375975738     -0.95534822665590
  H   -0.15836070466258     -3.58105485636665      0.95198177072890
  C   -2.08749654987733     -3.34214020391009      1.93775681774907
  H   -0.08048805048906     -2.78386511088875      2.58755570098206
  H   -2.67036881040845     -3.48433099252398      1.02688873740427
  H   -2.59266426290002     -2.68840249777627      2.65399523376576
  H   -2.02944924040415     -4.32899596538992      2.43130704702576
  H   3.92856990351259      0.03454224998303     -0.96275116218370
  H   2.90774013996318     -0.63387310866008     -2.30687371749693
  C   4.33362083345252     -2.04901437565184     -1.46316455944553
  H   4.84257320338818     -2.26626624319184     -0.51973935478080
  H   5.13101277833462     -1.78029007316024     -2.17515661867524
  H   3.83291694552577     -2.93043013249949     -1.86549750506312
*
