! PBE def2-TZVP
%pal nprocs 16 end
%maxcore 3000

* xyz 3 2
Fe  -0.53322780426888     -0.13914882121038      0.19503402091866
O   -1.81261194062985     -0.35403303963410     -1.24140850240326
O   0.74504770660147      0.07355891323791      1.63274931749437
O   0.03838102703422      1.57812264225771     -0.50549326300729
O   -1.10642467558400     -1.85447094081390      0.89734318274034
O   -1.89987143905626      0.79471256973887      1.19953512010112
O   0.83048885691196     -1.07364956793735     -0.81376907580222
H   -1.92819055180768      1.75746940238762      1.33578882800279
H   -0.35594023492880      2.03012393864146     -1.27136407237505
H   -2.66463652210074      0.11125766850522     -1.30415744681417
H   -1.91193446625369     -2.32857905444342      0.62818079956065
H   0.60995043113956      0.59751792506152      2.44109612307066
H   1.50599404778264     -0.65588155402868     -1.37539730502233
H   -0.71163134728462     -2.30932775830665      1.66133570905549
H   -2.57116778996972      0.37400353858084      1.76404848542902
H   -1.67376047096368     -0.87513401201736     -2.05097567988012
H   0.86239548703054     -2.03737635930107     -0.94204703825418
H   0.84703325799930      2.04976483949969     -0.24155348514076
H   1.59809642834825     -0.39018033021790      1.69289428232628
*

